<?xml version="1.0"?>
<VTKFile type="UnstructuredGrid">
  <UnstructuredGrid>
  <Piece NumberOfPoints="23" NumberOfCells="11">
    <Points>
      <DataArray type="Float64" NumberOfComponents="3" format="ascii">
0.13918 0.03255 0
0.53374 0.01364 0
1.31368 -0.18667 0
2.16042 0.21133 0
2.24366 0.59973 0
1.79829 0.56979 0
1.81621 0.44327 0
2.11999 0.84768 0
2.09529 1.00268 0
1.36594 1.08405 0
0.61029 0.98376 0
0.15904 1.00159 0
0.00000 0.91635 0
0.00000 0.66600 0
0.00000 0.33300 0
0.00000 0.08330 0
0.96563 0.50168 0
0.47395 0.25507 0
1.52149 0.78994 0
0.48630 0.50179 0
0.49775 0.75405 0
1.39892 0.52018 0
1.45681 0.23527 0
      </DataArray>
    </Points>
    <Cells>
      <DataArray type="Int32" Name="connectivity" format="ascii">
0 3 1 2
4 7 5 6
8 11 9 10
12 15 13 14
16
17
18
19
20
21
22
      </DataArray>
      <DataArray type="Int32" Name="offsets" format="ascii">
2
4
6
8
17
18
19
20
21
22
23
      </DataArray>
      <DataArray type="UInt8" Name="types" format="ascii">
68
68
68
68
1
1
1
1
1
1
1
      </DataArray>
    </Cells>
    <PointData>
      <DataArray type="Float64" NumberOfComponents="2" Name="Displacements" format="ascii">
0.05587 0.03255
0.20074 0.01364
0.64768 -0.18667
1.24406 0.21133
1.24366 0.51642
0.79829 0.23679
0.81621 -0.22273
1.11999 -0.06867
1.17893 0.00268
0.69994 0.08405
0.27729 -0.01624
0.07574 0.00159
0.00000 0.00000
0.00000 0.00000
0.00000 0.00000
0.00000 0.00000
0.46563 0.00168
0.22395 0.00507
0.77149 0.03994
0.23630 0.00179
0.24775 0.00405
0.64892 0.02018
0.70681 -0.01473
      </DataArray>
      <DataArray type="Float64" NumberOfComponents="4" Name="Stress" format="ascii">
0 0 0 0
0 0 0 0
0 0 0 0
0 0 0 0
0 0 0 0
0 0 0 0
0 0 0 0
0 0 0 0
0 0 0 0
0 0 0 0
0 0 0 0
0 0 0 0
0 0 0 0
0 0 0 0
0 0 0 0
0 0 0 0
0.83559 0.04851 0.04851 0.71633
1.01026 -0.02352 -0.02352 0.29676
1.11063 0.22324 0.22324 1.17301
0.97757 0.02040 0.02040 0.39972
1.00030 0.04310 0.04310 0.36971
0.63918 0.14137 0.14137 0.84996
0.83421 -0.00832 -0.00832 1.24667
      </DataArray>
    </PointData>
  </Piece>
  </UnstructuredGrid>
</VTKFile><?xml version="1.0"?>
<VTKFile type="UnstructuredGrid">
  <UnstructuredGrid>
  <Piece NumberOfPoints="23" NumberOfCells="11">
    <Points>
      <DataArray type="Float64" NumberOfComponents="3" format="ascii">
0.13918 0.03255 0
0.53374 0.01364 0
1.31368 -0.18667 0
2.16042 0.21133 0
2.24366 0.59973 0
1.79829 0.56979 0
1.81621 0.44327 0
2.11999 0.84768 0
2.09529 1.00268 0
1.36594 1.08405 0
0.61029 0.98376 0
0.15904 1.00159 0
0.00000 0.91635 0
0.00000 0.66600 0
0.00000 0.33300 0
0.00000 0.08330 0
0.96563 0.50168 0
0.47395 0.25507 0
1.52149 0.78994 0
0.48630 0.50179 0
0.49775 0.75405 0
1.39892 0.52018 0
1.45681 0.23527 0
      </DataArray>
    </Points>
    <Cells>
      <DataArray type="Int32" Name="connectivity" format="ascii">
0 3 1 2
4 7 5 6
8 11 9 10
12 15 13 14
16
17
18
19
20
21
22
      </DataArray>
      <DataArray type="Int32" Name="offsets" format="ascii">
2
4
6
8
17
18
19
20
21
22
23
      </DataArray>
      <DataArray type="UInt8" Name="types" format="ascii">
68
68
68
68
1
1
1
1
1
1
1
      </DataArray>
    </Cells>
    <PointData>
      <DataArray type="Float64" NumberOfComponents="2" Name="Displacements" format="ascii">
0.05587 0.03255
0.20074 0.01364
0.64768 -0.18667
1.24406 0.21133
1.24366 0.51642
0.79829 0.23679
0.81621 -0.22273
1.11999 -0.06867
1.17893 0.00268
0.69994 0.08405
0.27729 -0.01624
0.07574 0.00159
0.00000 0.00000
0.00000 0.00000
0.00000 0.00000
0.00000 0.00000
0.46563 0.00168
0.22395 0.00507
0.77149 0.03994
0.23630 0.00179
0.24775 0.00405
0.64892 0.02018
0.70681 -0.01473
      </DataArray>
      <DataArray type="Float64" NumberOfComponents="4" Name="Stress" format="ascii">
0 0 0 0
0 0 0 0
0 0 0 0
0 0 0 0
0 0 0 0
0 0 0 0
0 0 0 0
0 0 0 0
0 0 0 0
0 0 0 0
0 0 0 0
0 0 0 0
0 0 0 0
0 0 0 0
0 0 0 0
0 0 0 0
0.83559 0.04851 0.04851 0.71633
1.01026 -0.02352 -0.02352 0.29676
1.11063 0.22324 0.22324 1.17301
0.97757 0.02040 0.02040 0.39972
1.00030 0.04310 0.04310 0.36971
0.63918 0.14137 0.14137 0.84996
0.83421 -0.00832 -0.00832 1.24667
      </DataArray>
    </PointData>
  </Piece>
  </UnstructuredGrid>
</VTKFile><?xml version="1.0"?>
<VTKFile type="UnstructuredGrid">
  <UnstructuredGrid>
  <Piece NumberOfPoints="23" NumberOfCells="11">
    <Points>
      <DataArray type="Float64" NumberOfComponents="3" format="ascii">
0.13918 0.03255 0
0.53374 0.01364 0
1.31368 -0.18667 0
2.16042 0.21133 0
2.24366 0.59973 0
1.79829 0.56979 0
1.81621 0.44327 0
2.11999 0.84768 0
2.09529 1.00268 0
1.36594 1.08405 0
0.61029 0.98376 0
0.15904 1.00159 0
0.00000 0.91635 0
0.00000 0.66600 0
0.00000 0.33300 0
0.00000 0.08330 0
0.96563 0.50168 0
0.47395 0.25507 0
1.52149 0.78994 0
0.48630 0.50179 0
0.49775 0.75405 0
1.39892 0.52018 0
1.45681 0.23527 0
      </DataArray>
    </Points>
    <Cells>
      <DataArray type="Int32" Name="connectivity" format="ascii">
0 3 1 2
4 7 5 6
8 11 9 10
12 15 13 14
16
17
18
19
20
21
22
      </DataArray>
      <DataArray type="Int32" Name="offsets" format="ascii">
2
4
6
8
17
18
19
20
21
22
23
      </DataArray>
      <DataArray type="UInt8" Name="types" format="ascii">
68
68
68
68
1
1
1
1
1
1
1
      </DataArray>
    </Cells>
    <PointData>
      <DataArray type="Float64" NumberOfComponents="2" Name="Displacements" format="ascii">
0.05587 0.03255
0.20074 0.01364
0.64768 -0.18667
1.24406 0.21133
1.24366 0.51642
0.79829 0.23679
0.81621 -0.22273
1.11999 -0.06867
1.17893 0.00268
0.69994 0.08405
0.27729 -0.01624
0.07574 0.00159
0.00000 0.00000
0.00000 0.00000
0.00000 0.00000
0.00000 0.00000
0.46563 0.00168
0.22395 0.00507
0.77149 0.03994
0.23630 0.00179
0.24775 0.00405
0.64892 0.02018
0.70681 -0.01473
      </DataArray>
      <DataArray type="Float64" NumberOfComponents="4" Name="Stress" format="ascii">
0 0 0 0
0 0 0 0
0 0 0 0
0 0 0 0
0 0 0 0
0 0 0 0
0 0 0 0
0 0 0 0
0 0 0 0
0 0 0 0
0 0 0 0
0 0 0 0
0 0 0 0
0 0 0 0
0 0 0 0
0 0 0 0
0.83559 0.04851 0.04851 0.71633
1.01026 -0.02352 -0.02352 0.29676
1.11063 0.22324 0.22324 1.17301
0.97757 0.02040 0.02040 0.39972
1.00030 0.04310 0.04310 0.36971
0.63918 0.14137 0.14137 0.84996
0.83421 -0.00832 -0.00832 1.24667
      </DataArray>
    </PointData>
  </Piece>
  </UnstructuredGrid>
</VTKFile><?xml version="1.0"?>
<VTKFile type="UnstructuredGrid">
  <UnstructuredGrid>
  <Piece NumberOfPoints="23" NumberOfCells="11">
    <Points>
      <DataArray type="Float64" NumberOfComponents="3" format="ascii">
0.13918 0.03255 0
0.53374 0.01364 0
1.31368 -0.18667 0
2.16042 0.21133 0
2.24366 0.59973 0
1.79829 0.56979 0
1.81621 0.44327 0
2.11999 0.84768 0
2.09529 1.00268 0
1.36594 1.08405 0
0.61029 0.98376 0
0.15904 1.00159 0
0.00000 0.91635 0
0.00000 0.66600 0
0.00000 0.33300 0
0.00000 0.08330 0
0.96563 0.50168 0
0.47395 0.25507 0
1.52149 0.78994 0
0.48630 0.50179 0
0.49775 0.75405 0
1.39892 0.52018 0
1.45681 0.23527 0
      </DataArray>
    </Points>
    <Cells>
      <DataArray type="Int32" Name="connectivity" format="ascii">
0 3 1 2
4 7 5 6
8 11 9 10
12 15 13 14
16
17
18
19
20
21
22
      </DataArray>
      <DataArray type="Int32" Name="offsets" format="ascii">
2
4
6
8
17
18
19
20
21
22
23
      </DataArray>
      <DataArray type="UInt8" Name="types" format="ascii">
68
68
68
68
1
1
1
1
1
1
1
      </DataArray>
    </Cells>
    <PointData>
      <DataArray type="Float64" NumberOfComponents="2" Name="Displacements" format="ascii">
0.05587 0.03255
0.20074 0.01364
0.64768 -0.18667
1.24406 0.21133
1.24366 0.51642
0.79829 0.23679
0.81621 -0.22273
1.11999 -0.06867
1.17893 0.00268
0.69994 0.08405
0.27729 -0.01624
0.07574 0.00159
0.00000 0.00000
0.00000 0.00000
0.00000 0.00000
0.00000 0.00000
0.46563 0.00168
0.22395 0.00507
0.77149 0.03994
0.23630 0.00179
0.24775 0.00405
0.64892 0.02018
0.70681 -0.01473
      </DataArray>
      <DataArray type="Float64" NumberOfComponents="4" Name="Stress" format="ascii">
0 0 0 0
0 0 0 0
0 0 0 0
0 0 0 0
0 0 0 0
0 0 0 0
0 0 0 0
0 0 0 0
0 0 0 0
0 0 0 0
0 0 0 0
0 0 0 0
0 0 0 0
0 0 0 0
0 0 0 0
0 0 0 0
0.83559 0.04851 0.04851 0.71633
1.01026 -0.02352 -0.02352 0.29676
1.11063 0.22324 0.22324 1.17301
0.97757 0.02040 0.02040 0.39972
1.00030 0.04310 0.04310 0.36971
0.63918 0.14137 0.14137 0.84996
0.83421 -0.00832 -0.00832 1.24667
      </DataArray>
    </PointData>
  </Piece>
  </UnstructuredGrid>
</VTKFile><?xml version="1.0"?>
<VTKFile type="UnstructuredGrid">
  <UnstructuredGrid>
  <Piece NumberOfPoints="23" NumberOfCells="11">
    <Points>
      <DataArray type="Float64" NumberOfComponents="3" format="ascii">
0.13918 0.03255 0
0.53374 0.01364 0
1.31368 -0.18667 0
2.16042 0.21133 0
2.24366 0.59973 0
1.79829 0.56979 0
1.81621 0.44327 0
2.11999 0.84768 0
2.09529 1.00268 0
1.36594 1.08405 0
0.61029 0.98376 0
0.15904 1.00159 0
0.00000 0.91635 0
0.00000 0.66600 0
0.00000 0.33300 0
0.00000 0.08330 0
0.96563 0.50168 0
0.47395 0.25507 0
1.52149 0.78994 0
0.48630 0.50179 0
0.49775 0.75405 0
1.39892 0.52018 0
1.45681 0.23527 0
      </DataArray>
    </Points>
    <Cells>
      <DataArray type="Int32" Name="connectivity" format="ascii">
0 3 1 2
4 7 5 6
8 11 9 10
12 15 13 14
16
17
18
19
20
21
22
      </DataArray>
      <DataArray type="Int32" Name="offsets" format="ascii">
2
4
6
8
17
18
19
20
21
22
23
      </DataArray>
      <DataArray type="UInt8" Name="types" format="ascii">
68
68
68
68
1
1
1
1
1
1
1
      </DataArray>
    </Cells>
    <PointData>
      <DataArray type="Float64" NumberOfComponents="2" Name="Displacements" format="ascii">
0.05587 0.03255
0.20074 0.01364
0.64768 -0.18667
1.24406 0.21133
1.24366 0.51642
0.79829 0.23679
0.81621 -0.22273
1.11999 -0.06867
1.17893 0.00268
0.69994 0.08405
0.27729 -0.01624
0.07574 0.00159
0.00000 0.00000
0.00000 0.00000
0.00000 0.00000
0.00000 0.00000
0.46563 0.00168
0.22395 0.00507
0.77149 0.03994
0.23630 0.00179
0.24775 0.00405
0.64892 0.02018
0.70681 -0.01473
      </DataArray>
      <DataArray type="Float64" NumberOfComponents="4" Name="Stress" format="ascii">
0 0 0 0
0 0 0 0
0 0 0 0
0 0 0 0
0 0 0 0
0 0 0 0
0 0 0 0
0 0 0 0
0 0 0 0
0 0 0 0
0 0 0 0
0 0 0 0
0 0 0 0
0 0 0 0
0 0 0 0
0 0 0 0
0.83559 0.04851 0.04851 0.71633
1.01026 -0.02352 -0.02352 0.29676
1.11063 0.22324 0.22324 1.17301
0.97757 0.02040 0.02040 0.39972
1.00030 0.04310 0.04310 0.36971
0.63918 0.14137 0.14137 0.84996
0.83421 -0.00832 -0.00832 1.24667
      </DataArray>
    </PointData>
  </Piece>
  </UnstructuredGrid>
</VTKFile><?xml version="1.0"?>
<VTKFile type="UnstructuredGrid">
  <UnstructuredGrid>
  <Piece NumberOfPoints="23" NumberOfCells="11">
    <Points>
      <DataArray type="Float64" NumberOfComponents="3" format="ascii">
0.13918 0.03255 0
0.53374 0.01364 0
1.31368 -0.18667 0
2.16042 0.21133 0
2.24366 0.59973 0
1.79829 0.56979 0
1.81621 0.44327 0
2.11999 0.84768 0
2.09529 1.00268 0
1.36594 1.08405 0
0.61029 0.98376 0
0.15904 1.00159 0
0.00000 0.91635 0
0.00000 0.66600 0
0.00000 0.33300 0
0.00000 0.08330 0
0.96563 0.50168 0
0.47395 0.25507 0
1.52149 0.78994 0
0.48630 0.50179 0
0.49775 0.75405 0
1.39892 0.52018 0
1.45681 0.23527 0
      </DataArray>
    </Points>
    <Cells>
      <DataArray type="Int32" Name="connectivity" format="ascii">
0 3 1 2
4 7 5 6
8 11 9 10
12 15 13 14
16
17
18
19
20
21
22
      </DataArray>
      <DataArray type="Int32" Name="offsets" format="ascii">
2
4
6
8
17
18
19
20
21
22
23
      </DataArray>
      <DataArray type="UInt8" Name="types" format="ascii">
68
68
68
68
1
1
1
1
1
1
1
      </DataArray>
    </Cells>
    <PointData>
      <DataArray type="Float64" NumberOfComponents="2" Name="Displacements" format="ascii">
0.05587 0.03255
0.20074 0.01364
0.64768 -0.18667
1.24406 0.21133
1.24366 0.51642
0.79829 0.23679
0.81621 -0.22273
1.11999 -0.06867
1.17893 0.00268
0.69994 0.08405
0.27729 -0.01624
0.07574 0.00159
0.00000 0.00000
0.00000 0.00000
0.00000 0.00000
0.00000 0.00000
0.46563 0.00168
0.22395 0.00507
0.77149 0.03994
0.23630 0.00179
0.24775 0.00405
0.64892 0.02018
0.70681 -0.01473
      </DataArray>
      <DataArray type="Float64" NumberOfComponents="4" Name="Stress" format="ascii">
0 0 0 0
0 0 0 0
0 0 0 0
0 0 0 0
0 0 0 0
0 0 0 0
0 0 0 0
0 0 0 0
0 0 0 0
0 0 0 0
0 0 0 0
0 0 0 0
0 0 0 0
0 0 0 0
0 0 0 0
0 0 0 0
0.83559 0.04851 0.04851 0.71633
1.01026 -0.02352 -0.02352 0.29676
1.11063 0.22324 0.22324 1.17301
0.97757 0.02040 0.02040 0.39972
1.00030 0.04310 0.04310 0.36971
0.63918 0.14137 0.14137 0.84996
0.83421 -0.00832 -0.00832 1.24667
      </DataArray>
    </PointData>
  </Piece>
  </UnstructuredGrid>
</VTKFile><?xml version="1.0"?>
<VTKFile type="UnstructuredGrid">
  <UnstructuredGrid>
  <Piece NumberOfPoints="23" NumberOfCells="11">
    <Points>
      <DataArray type="Float64" NumberOfComponents="3" format="ascii">
0.13918 0.03255 0
0.53374 0.01364 0
1.31368 -0.18667 0
2.16042 0.21133 0
2.24366 0.59973 0
1.79829 0.56979 0
1.81621 0.44327 0
2.11999 0.84768 0
2.09529 1.00268 0
1.36594 1.08405 0
0.61029 0.98376 0
0.15904 1.00159 0
0.00000 0.91635 0
0.00000 0.66600 0
0.00000 0.33300 0
0.00000 0.08330 0
0.96563 0.50168 0
0.47395 0.25507 0
1.52149 0.78994 0
0.48630 0.50179 0
0.49775 0.75405 0
1.39892 0.52018 0
1.45681 0.23527 0
      </DataArray>
    </Points>
    <Cells>
      <DataArray type="Int32" Name="connectivity" format="ascii">
0 3 1 2
4 7 5 6
8 11 9 10
12 15 13 14
16
17
18
19
20
21
22
      </DataArray>
      <DataArray type="Int32" Name="offsets" format="ascii">
2
4
6
8
17
18
19
20
21
22
23
      </DataArray>
      <DataArray type="UInt8" Name="types" format="ascii">
68
68
68
68
1
1
1
1
1
1
1
      </DataArray>
    </Cells>
    <PointData>
      <DataArray type="Float64" NumberOfComponents="2" Name="Displacements" format="ascii">
0.05587 0.03255
0.20074 0.01364
0.64768 -0.18667
1.24406 0.21133
1.24366 0.51642
0.79829 0.23679
0.81621 -0.22273
1.11999 -0.06867
1.17893 0.00268
0.69994 0.08405
0.27729 -0.01624
0.07574 0.00159
0.00000 0.00000
0.00000 0.00000
0.00000 0.00000
0.00000 0.00000
0.46563 0.00168
0.22395 0.00507
0.77149 0.03994
0.23630 0.00179
0.24775 0.00405
0.64892 0.02018
0.70681 -0.01473
      </DataArray>
      <DataArray type="Float64" NumberOfComponents="4" Name="Stress" format="ascii">
0 0 0 0
0 0 0 0
0 0 0 0
0 0 0 0
0 0 0 0
0 0 0 0
0 0 0 0
0 0 0 0
0 0 0 0
0 0 0 0
0 0 0 0
0 0 0 0
0 0 0 0
0 0 0 0
0 0 0 0
0 0 0 0
0.83559 0.04851 0.04851 0.71633
1.01026 -0.02352 -0.02352 0.29676
1.11063 0.22324 0.22324 1.17301
0.97757 0.02040 0.02040 0.39972
1.00030 0.04310 0.04310 0.36971
0.63918 0.14137 0.14137 0.84996
0.83421 -0.00832 -0.00832 1.24667
      </DataArray>
    </PointData>
  </Piece>
  </UnstructuredGrid>
</VTKFile><?xml version="1.0"?>
<VTKFile type="UnstructuredGrid">
  <UnstructuredGrid>
  <Piece NumberOfPoints="23" NumberOfCells="11">
    <Points>
      <DataArray type="Float64" NumberOfComponents="3" format="ascii">
0.13918 0.03255 0
0.53374 0.01364 0
1.31368 -0.18667 0
2.16042 0.21133 0
2.24366 0.59973 0
1.79829 0.56979 0
1.81621 0.44327 0
2.11999 0.84768 0
2.09529 1.00268 0
1.36594 1.08405 0
0.61029 0.98376 0
0.15904 1.00159 0
0.00000 0.91635 0
0.00000 0.66600 0
0.00000 0.33300 0
0.00000 0.08330 0
0.96563 0.50168 0
0.47395 0.25507 0
1.52149 0.78994 0
0.48630 0.50179 0
0.49775 0.75405 0
1.39892 0.52018 0
1.45681 0.23527 0
      </DataArray>
    </Points>
    <Cells>
      <DataArray type="Int32" Name="connectivity" format="ascii">
0 3 1 2
4 7 5 6
8 11 9 10
12 15 13 14
16
17
18
19
20
21
22
      </DataArray>
      <DataArray type="Int32" Name="offsets" format="ascii">
2
4
6
8
17
18
19
20
21
22
23
      </DataArray>
      <DataArray type="UInt8" Name="types" format="ascii">
68
68
68
68
1
1
1
1
1
1
1
      </DataArray>
    </Cells>
    <PointData>
      <DataArray type="Float64" NumberOfComponents="2" Name="Displacements" format="ascii">
0.05587 0.03255
0.20074 0.01364
0.64768 -0.18667
1.24406 0.21133
1.24366 0.51642
0.79829 0.23679
0.81621 -0.22273
1.11999 -0.06867
1.17893 0.00268
0.69994 0.08405
0.27729 -0.01624
0.07574 0.00159
0.00000 0.00000
0.00000 0.00000
0.00000 0.00000
0.00000 0.00000
0.46563 0.00168
0.22395 0.00507
0.77149 0.03994
0.23630 0.00179
0.24775 0.00405
0.64892 0.02018
0.70681 -0.01473
      </DataArray>
      <DataArray type="Float64" NumberOfComponents="4" Name="Stress" format="ascii">
0 0 0 0
0 0 0 0
0 0 0 0
0 0 0 0
0 0 0 0
0 0 0 0
0 0 0 0
0 0 0 0
0 0 0 0
0 0 0 0
0 0 0 0
0 0 0 0
0 0 0 0
0 0 0 0
0 0 0 0
0 0 0 0
0.83559 0.04851 0.04851 0.71633
1.01026 -0.02352 -0.02352 0.29676
1.11063 0.22324 0.22324 1.17301
0.97757 0.02040 0.02040 0.39972
1.00030 0.04310 0.04310 0.36971
0.63918 0.14137 0.14137 0.84996
0.83421 -0.00832 -0.00832 1.24667
      </DataArray>
    </PointData>
  </Piece>
  </UnstructuredGrid>
</VTKFile><?xml version="1.0"?>
<VTKFile type="UnstructuredGrid">
  <UnstructuredGrid>
  <Piece NumberOfPoints="23" NumberOfCells="11">
    <Points>
      <DataArray type="Float64" NumberOfComponents="3" format="ascii">
0.13918 0.03255 0
0.53374 0.01364 0
1.31368 -0.18667 0
2.16042 0.21133 0
2.24366 0.59973 0
1.79829 0.56979 0
1.81621 0.44327 0
2.11999 0.84768 0
2.09529 1.00268 0
1.36594 1.08405 0
0.61029 0.98376 0
0.15904 1.00159 0
0.00000 0.91635 0
0.00000 0.66600 0
0.00000 0.33300 0
0.00000 0.08330 0
0.96563 0.50168 0
0.47395 0.25507 0
1.52149 0.78994 0
0.48630 0.50179 0
0.49775 0.75405 0
1.39892 0.52018 0
1.45681 0.23527 0
      </DataArray>
    </Points>
    <Cells>
      <DataArray type="Int32" Name="connectivity" format="ascii">
0 3 1 2
4 7 5 6
8 11 9 10
12 15 13 14
16
17
18
19
20
21
22
      </DataArray>
      <DataArray type="Int32" Name="offsets" format="ascii">
2
4
6
8
17
18
19
20
21
22
23
      </DataArray>
      <DataArray type="UInt8" Name="types" format="ascii">
68
68
68
68
1
1
1
1
1
1
1
      </DataArray>
    </Cells>
    <PointData>
      <DataArray type="Float64" NumberOfComponents="2" Name="Displacements" format="ascii">
0.05587 0.03255
0.20074 0.01364
0.64768 -0.18667
1.24406 0.21133
1.24366 0.51642
0.79829 0.23679
0.81621 -0.22273
1.11999 -0.06867
1.17893 0.00268
0.69994 0.08405
0.27729 -0.01624
0.07574 0.00159
0.00000 0.00000
0.00000 0.00000
0.00000 0.00000
0.00000 0.00000
0.46563 0.00168
0.22395 0.00507
0.77149 0.03994
0.23630 0.00179
0.24775 0.00405
0.64892 0.02018
0.70681 -0.01473
      </DataArray>
      <DataArray type="Float64" NumberOfComponents="4" Name="Stress" format="ascii">
0 0 0 0
0 0 0 0
0 0 0 0
0 0 0 0
0 0 0 0
0 0 0 0
0 0 0 0
0 0 0 0
0 0 0 0
0 0 0 0
0 0 0 0
0 0 0 0
0 0 0 0
0 0 0 0
0 0 0 0
0 0 0 0
0.83559 0.04851 0.04851 0.71633
1.01026 -0.02352 -0.02352 0.29676
1.11063 0.22324 0.22324 1.17301
0.97757 0.02040 0.02040 0.39972
1.00030 0.04310 0.04310 0.36971
0.63918 0.14137 0.14137 0.84996
0.83421 -0.00832 -0.00832 1.24667
      </DataArray>
    </PointData>
  </Piece>
  </UnstructuredGrid>
</VTKFile><?xml version="1.0"?>
<VTKFile type="UnstructuredGrid">
  <UnstructuredGrid>
  <Piece NumberOfPoints="23" NumberOfCells="11">
    <Points>
      <DataArray type="Float64" NumberOfComponents="3" format="ascii">
-5.94687 4.30483 0
2.83870 -1.88675 0
-6.33874 2.56406 0
24.02487 13.15262 0
-7.97405 26.26192 0
8.74109 -16.01228 0
-9.91174 10.40305 0
7.94494 6.04356 0
-0.31078 -0.35369 0
1.36368 -0.45576 0
-1.11397 3.10541 0
4.80880 3.47773 0
0.00000 0.91635 0
0.00000 0.66600 0
0.00000 0.33300 0
0.00000 0.08330 0
0.83323 0.44945 0
0.21510 0.33763 0
0.10472 0.92769 0
0.16207 0.29744 0
0.24430 0.69334 0
2.19559 0.34806 0
0.66467 0.49468 0
      </DataArray>
    </Points>
    <Cells>
      <DataArray type="Int32" Name="connectivity" format="ascii">
0 3 1 2
4 7 5 6
8 11 9 10
12 15 13 14
16
17
18
19
20
21
22
      </DataArray>
      <DataArray type="Int32" Name="offsets" format="ascii">
2
4
6
8
17
18
19
20
21
22
23
      </DataArray>
      <DataArray type="UInt8" Name="types" format="ascii">
68
68
68
68
1
1
1
1
1
1
1
      </DataArray>
    </Cells>
    <PointData>
      <DataArray type="Float64" NumberOfComponents="2" Name="Displacements" format="ascii">
-6.03018 4.30483
2.50570 -1.88675
-7.00474 2.56406
23.10852 13.15262
-8.97405 26.17861
7.74109 -16.34528
-10.91174 9.73705
6.94494 5.12721
-1.22713 -1.35369
0.69768 -1.45576
-1.44697 2.10541
4.72550 2.47773
0.00000 0.00000
0.00000 0.00000
0.00000 0.00000
0.00000 0.00000
0.33323 -0.05055
-0.03490 0.08763
-0.64528 0.17769
-0.08793 -0.20256
-0.00570 -0.05666
1.44559 -0.15194
-0.08533 0.24468
      </DataArray>
      <DataArray type="Float64" NumberOfComponents="4" Name="Stress" format="ascii">
0 0 0 0
0 0 0 0
0 0 0 0
0 0 0 0
0 0 0 0
0 0 0 0
0 0 0 0
0 0 0 0
0 0 0 0
0 0 0 0
0 0 0 0
0 0 0 0
0 0 0 0
0 0 0 0
0 0 0 0
0 0 0 0
2.28473 -0.44250 -0.44250 -0.92536
-0.24043 -0.07363 -0.07363 -0.41821
-6.21444 0.11305 0.11305 -3.63897
1.56255 0.74943 0.74943 -0.63662
0.17118 1.13304 1.13304 2.18859
7.80105 -2.53621 -2.53621 0.17972
-1.45732 7.64197 7.64197 -2.64701
      </DataArray>
    </PointData>
  </Piece>
  </UnstructuredGrid>
</VTKFile><?xml version="1.0"?>
<VTKFile type="UnstructuredGrid">
  <UnstructuredGrid>
  <Piece NumberOfPoints="23" NumberOfCells="11">
    <Points>
      <DataArray type="Float64" NumberOfComponents="3" format="ascii">
-5.94687 4.30483 0
2.83870 -1.88675 0
-6.33874 2.56406 0
24.02487 13.15262 0
-7.97405 26.26192 0
8.74109 -16.01228 0
-9.91174 10.40305 0
7.94494 6.04356 0
-0.31078 -0.35369 0
1.36368 -0.45576 0
-1.11397 3.10541 0
4.80880 3.47773 0
0.00000 0.91635 0
0.00000 0.66600 0
0.00000 0.33300 0
0.00000 0.08330 0
0.83323 0.44945 0
0.21510 0.33763 0
0.10472 0.92769 0
0.16207 0.29744 0
0.24430 0.69334 0
2.19559 0.34806 0
0.66467 0.49468 0
      </DataArray>
    </Points>
    <Cells>
      <DataArray type="Int32" Name="connectivity" format="ascii">
0 3 1 2
4 7 5 6
8 11 9 10
12 15 13 14
16
17
18
19
20
21
22
      </DataArray>
      <DataArray type="Int32" Name="offsets" format="ascii">
2
4
6
8
17
18
19
20
21
22
23
      </DataArray>
      <DataArray type="UInt8" Name="types" format="ascii">
68
68
68
68
1
1
1
1
1
1
1
      </DataArray>
    </Cells>
    <PointData>
      <DataArray type="Float64" NumberOfComponents="2" Name="Displacements" format="ascii">
-6.03018 4.30483
2.50570 -1.88675
-7.00474 2.56406
23.10852 13.15262
-8.97405 26.17861
7.74109 -16.34528
-10.91174 9.73705
6.94494 5.12721
-1.22713 -1.35369
0.69768 -1.45576
-1.44697 2.10541
4.72550 2.47773
0.00000 0.00000
0.00000 0.00000
0.00000 0.00000
0.00000 0.00000
0.33323 -0.05055
-0.03490 0.08763
-0.64528 0.17769
-0.08793 -0.20256
-0.00570 -0.05666
1.44559 -0.15194
-0.08533 0.24468
      </DataArray>
      <DataArray type="Float64" NumberOfComponents="4" Name="Stress" format="ascii">
0 0 0 0
0 0 0 0
0 0 0 0
0 0 0 0
0 0 0 0
0 0 0 0
0 0 0 0
0 0 0 0
0 0 0 0
0 0 0 0
0 0 0 0
0 0 0 0
0 0 0 0
0 0 0 0
0 0 0 0
0 0 0 0
2.28473 -0.44250 -0.44250 -0.92536
-0.24043 -0.07363 -0.07363 -0.41821
-6.21444 0.11305 0.11305 -3.63897
1.56255 0.74943 0.74943 -0.63662
0.17118 1.13304 1.13304 2.18859
7.80105 -2.53621 -2.53621 0.17972
-1.45732 7.64197 7.64197 -2.64701
      </DataArray>
    </PointData>
  </Piece>
  </UnstructuredGrid>
</VTKFile><?xml version="1.0"?>
<VTKFile type="UnstructuredGrid">
  <UnstructuredGrid>
  <Piece NumberOfPoints="15" NumberOfCells="11">
    <Points>
      <DataArray type="Float64" NumberOfComponents="3" format="ascii">
0.50001 -0.00001 0
1.50001 0.00004 0
1.99999 0.25007 0
1.99999 0.74993 0
1.50001 0.99996 0
0.50001 1.00001 0
0.00000 0.75000 0
0.00000 0.25000 0
0.99999 0.50000 0
0.50000 0.24999 0
1.49999 0.74997 0
0.50000 0.50000 0
0.50000 0.75001 0
1.49994 0.50000 0
1.49999 0.25003 0
      </DataArray>
    </Points>
    <Cells>
      <DataArray type="Int32" Name="connectivity" format="ascii">
<?xml version="1.0"?>
<VTKFile type="UnstructuredGrid">
  <UnstructuredGrid>
  <Piece NumberOfPoints="19" NumberOfCells="11">
    <Points>
      <DataArray type="Float64" NumberOfComponents="3" format="ascii">
0.02201 -0.08905 0
0.33804 -0.34412 0
0.28093 -1.17784 0
0.98504 -1.60917 0
1.90148 -0.81772 0
3.02429 -1.18408 0
3.61597 -0.25869 0
1.66679 0.72487 0
0.48241 0.89165 0
0.00000 0.87500 0
0.00000 0.50000 0
0.00000 0.12500 0
0.97917 0.13404 0
0.31403 0.13958 0
1.99337 -0.08945 0
0.49647 0.40425 0
0.68496 0.65387 0
1.44505 -0.35230 0
0.96683 -0.59002 0
      </DataArray>
    </Points>
    <Cells>
      <DataArray type="Int32" Name="connectivity" format="ascii">
