<?xml version="1.0"?>
<VTKFile type="UnstructuredGrid">
  <UnstructuredGrid>
  <Piece NumberOfPoints="16" NumberOfCells="12">
    <Points>
      <DataArray type="Float64" NumberOfComponents="3" format="ascii">
0.16650 -0.00003 0
0.66604 -0.00006 0
1.33194 0.00024 0
1.83282 -0.00022 0
1.99993 0.08294 0
2.00013 0.33283 0
2.00001 0.66644 0
1.99978 0.91653 0
1.83276 0.99999 0
1.33191 0.99962 0
0.66605 0.99995 0
0.16652 0.99999 0
0.00000 0.91650 0
0.00000 0.66600 0
0.00000 0.33300 0
0.00000 0.08325 0
      </DataArray>
    </Points>
    <Cells>
      <DataArray type="Int32" Name="connectivity" format="ascii">
0 1
1 2
2 3
4 5
5 6
6 7
8 9
9 10
10 11
12 13
13 14
14 15
      </DataArray>
      <DataArray type="Int32" Name="offsets" format="ascii">
2
4
6
8
10
12
14
16
18
20
22
24
      </DataArray>
      <DataArray type="UInt8" Name="types" format="ascii">
68
68
68
68
68
68
68
68
68
68
68
68
      </DataArray>
    </Cells>
    <PointData>
      <DataArray type="Float64" NumberOfComponents="2" Name="Displacements" format="ascii">
0.08325 -0.00003
0.33304 -0.00006
0.66594 0.00024
0.91632 -0.00022
0.99993 -0.00031
1.00013 -0.00017
1.00001 0.00044
0.99978 0.00003
0.91626 -0.00001
0.66591 -0.00038
0.33305 -0.00005
0.08327 -0.00001
0.00000 0.00000
0.00000 0.00000
0.00000 0.00000
0.00000 0.00000
      </DataArray>
      <DataArray type="Float64" NumberOfComponents="4" Name="Stress" format="ascii">
0 0 0 0
0 0 0 0
0 0 0 0
0 0 0 0
0 0 0 0
0 0 0 0
0 0 0 0
0 0 0 0
0 0 0 0
0 0 0 0
0 0 0 0
0 0 0 0
0 0 0 0
0 0 0 0
0 0 0 0
0 0 0 0
      </DataArray>
    </PointData>
  </Piece>
  </UnstructuredGrid>
</VTKFile>