<?xml version="1.0"?>
<VTKFile type="UnstructuredGrid">
  <UnstructuredGrid>
  <Piece NumberOfPoints="15" NumberOfCells="11">
    <Points>
      <DataArray type="Float64" NumberOfComponents="3" format="ascii">
0.50000 -0.00000 0
1.50000 0.00000 0
2.00000 0.25000 0
2.00000 0.75000 0
1.50000 1.00000 0
0.50000 1.00000 0
0.00000 0.75000 0
0.00000 0.25000 0
1.00000 0.50000 0
0.50000 0.25000 0
1.50000 0.74999 0
0.50000 0.50000 0
0.50000 0.75000 0
1.49996 0.50000 0
1.50000 0.25001 0
      </DataArray>
    </Points>
    <Cells>
      <DataArray type="Int32" Name="connectivity" format="ascii">
0 1
2 3
4 5
6 7
8
9
10
11
12
13
14
      </DataArray>
      <DataArray type="Int32" Name="offsets" format="ascii">
2
4
6
8
9
10
11
12
13
14
15
      </DataArray>
      <DataArray type="UInt8" Name="types" format="ascii">
68
68
68
68
1
1
1
1
1
1
1
      </DataArray>
    </Cells>
    <PointData>
      <DataArray type="Float64" NumberOfComponents="2" Name="Displacements" format="ascii">
0.25000 -0.00000
0.75000 0.00000
1.00000 0.00000
1.00000 -0.00000
0.75000 -0.00000
0.25000 0.00000
0.00000 0.00000
0.00000 0.00000
0.50000 0.00000
0.25000 -0.00000
0.75000 -0.00001
0.25000 0.00000
0.25000 0.00000
0.74996 0.00000
0.75000 0.00001
      </DataArray>
      <DataArray type="Float64" NumberOfComponents="4" Name="Stress" format="ascii">
0 0 0 0
0 0 0 0
0 0 0 0
0 0 0 0
0 0 0 0
0 0 0 0
0 0 0 0
0 0 0 0
1.00000 -0.00000 -0.00000 0.50000
0.99986 -0.00003 -0.00003 0.36765
0.99978 -0.00006 -0.00006 0.89768
0.99996 -0.00000 -0.00000 0.35502
0.99986 0.00003 0.00003 0.36765
0.99832 -0.00000 -0.00000 0.93630
0.99978 0.00006 0.00006 0.89768
      </DataArray>
    </PointData>
  </Piece>
  </UnstructuredGrid>
</VTKFile>