<?xml version="1.0"?>
<VTKFile type="UnstructuredGrid">
  <UnstructuredGrid>
  <Piece NumberOfPoints="12" NumberOfCells="8">
    <Points>
      <DataArray type="Float64" NumberOfComponents="3" format="ascii">
0.25000 0.00000 0
1.00000 -0.00000 0
1.75000 0.00000 0
2.00000 0.12500 0
2.00000 0.50000 0
2.00000 0.87500 0
1.75000 1.00000 0
1.00000 1.00000 0
0.25000 1.00000 0
0.00000 0.87500 0
0.00000 0.50000 0
0.00000 0.12500 0
      </DataArray>
    </Points>
    <Cells>
      <DataArray type="Int32" Name="connectivity" format="ascii">
0 1
1 2
3 4
4 5
6 7
7 8
9 10
10 11
      </DataArray>
      <DataArray type="Int32" Name="offsets" format="ascii">
2
4
6
8
10
12
14
16
      </DataArray>
      <DataArray type="UInt8" Name="types" format="ascii">
68
68
68
68
68
68
68
68
      </DataArray>
    </Cells>
    <PointData>
      <DataArray type="Float64" NumberOfComponents="2" Name="Displacements" format="ascii">
0.12500 0.00000
0.50000 -0.00000
0.87500 0.00000
1.00000 0.00000
1.00000 -0.00000
1.00000 0.00000
0.87500 0.00000
0.50000 0.00000
0.12500 0.00000
0.00000 0.00000
0.00000 0.00000
0.00000 0.00000
      </DataArray>
      <DataArray type="Float64" NumberOfComponents="4" Name="Stress" format="ascii">
0 0 0 0
0 0 0 0
0 0 0 0
0 0 0 0
0 0 0 0
0 0 0 0
0 0 0 0
0 0 0 0
0 0 0 0
0 0 0 0
0 0 0 0
0 0 0 0
      </DataArray>
    </PointData>
  </Piece>
  </UnstructuredGrid>
</VTKFile>