<?xml version="1.0"?>
<VTKFile type="UnstructuredGrid">
  <UnstructuredGrid>
  <Piece NumberOfPoints="509" NumberOfCells="504">
    <Points>
      <DataArray type="Float64" NumberOfComponents="3" format="ascii">
100.37500 0.00000 0
101.50000 0.00000 0
103.00000 0.00000 0
104.50000 0.00000 0
106.00000 0.00000 0
107.50000 0.00000 0
109.00000 0.00000 0
110.50000 0.00000 0
112.00000 0.00000 0
113.50000 0.00000 0
115.00000 0.00000 0
116.50000 0.00000 0
118.00000 0.00000 0
119.50000 0.00000 0
121.00000 0.00000 0
122.50000 0.00000 0
124.00000 0.00000 0
125.50000 0.00000 0
127.00000 0.00000 0
128.50000 0.00000 0
130.00000 0.00000 0
131.50000 0.00000 0
133.00000 0.00000 0
134.50000 0.00000 0
136.00000 0.00000 0
137.50000 0.00000 0
139.00000 0.00000 0
140.50000 0.00000 0
142.00000 0.00000 0
143.50000 0.00000 0
145.00000 0.00000 0
146.50000 0.00000 0
148.00000 0.00000 0
149.50000 0.00000 0
151.00000 0.00000 0
152.50000 0.00000 0
154.00000 0.00000 0
155.50000 0.00000 0
157.00000 0.00000 0
158.50000 0.00000 0
160.00000 0.00000 0
161.50000 0.00000 0
163.00000 0.00000 0
164.50000 0.00000 0
166.00000 0.00000 0
167.50000 0.00000 0
169.00000 0.00000 0
170.50000 0.00000 0
172.00000 0.00000 0
173.50000 0.00000 0
175.00000 0.00000 0
176.50000 0.00000 0
178.00000 0.00000 0
179.50000 0.00000 0
181.00000 0.00000 0
182.50000 0.00000 0
184.00000 0.00000 0
185.50000 0.00000 0
187.00000 0.00000 0
188.50000 0.00000 0
190.00000 0.00000 0
191.50000 0.00000 0
193.00000 0.00000 0
194.50000 0.00000 0
196.00000 0.00000 0
197.50000 0.00000 0
199.00000 0.00000 0
200.50000 0.00000 0
202.00000 0.00000 0
203.50000 0.00000 0
205.00000 0.00000 0
206.50000 0.00000 0
208.00000 0.00000 0
209.50000 0.00000 0
211.00000 0.00000 0
212.50000 0.00000 0
214.00000 0.00000 0
215.50000 0.00000 0
217.00000 0.00000 0
218.50000 0.00000 0
220.00000 0.00000 0
221.50000 0.00000 0
223.00000 0.00000 0
224.50000 0.00000 0
226.00000 0.00000 0
227.50000 0.00000 0
229.00000 0.00000 0
230.50000 0.00000 0
232.00000 0.00000 0
233.50000 0.00000 0
235.00000 0.00000 0
236.50000 0.00000 0
238.00000 0.00000 0
239.50000 0.00000 0
241.00000 0.00000 0
242.50000 0.00000 0
244.00000 0.00000 0
245.50000 0.00000 0
247.00000 0.00000 0
248.50000 0.00000 0
249.62500 0.00000 0
250.00147 0.62255 0
250.00483 2.49322 0
250.00914 4.98919 0
250.01317 7.48614 0
250.01697 9.98368 0
250.02058 12.48162 0
250.02402 14.97987 0
250.02731 17.47837 0
250.03048 19.97708 0
250.03353 22.47595 0
250.03647 24.97496 0
250.03932 27.47411 0
250.04206 29.97336 0
250.04472 32.47271 0
250.04729 34.97215 0
250.04979 37.47167 0
250.05221 39.97126 0
250.05455 42.47091 0
250.05683 44.97062 0
250.05904 47.47039 0
250.06118 49.97020 0
250.06326 52.47005 0
250.06528 54.96995 0
250.06725 57.46988 0
250.06916 59.96985 0
250.07101 62.46985 0
250.07281 64.96988 0
250.07456 67.46993 0
250.07626 69.97001 0
250.07791 72.47010 0
250.07951 74.97022 0
250.08107 77.47036 0
250.08258 79.97051 0
250.08405 82.47068 0
250.08548 84.97086 0
250.08686 87.47105 0
250.08821 89.97126 0
250.08951 92.47147 0
250.09078 94.97169 0
250.09202 97.47192 0
250.09321 99.97216 0
250.09438 102.47240 0
250.09550 104.97264 0
250.09660 107.47289 0
250.09767 109.97314 0
250.09870 112.47339 0
250.09970 114.97364 0
250.10068 117.47390 0
250.10162 119.97415 0
250.10254 122.47441 0
250.10344 124.97466 0
250.10431 127.47491 0
250.10515 129.97515 0
250.10597 132.47540 0
250.10677 134.97564 0
250.10755 137.47588 0
250.10830 139.97611 0
250.10904 142.47634 0
250.10975 144.97656 0
250.11045 147.47678 0
250.11113 149.97699 0
250.11179 152.47720 0
250.11244 154.97740 0
250.11307 157.47760 0
250.11369 159.97778 0
250.11429 162.47797 0
250.11488 164.97814 0
250.11546 167.47831 0
250.11603 169.97847 0
250.11658 172.47862 0
250.11713 174.97877 0
250.11767 177.47891 0
250.11819 179.97904 0
250.11872 182.47917 0
250.11923 184.97928 0
250.11974 187.47939 0
250.12024 189.97949 0
250.12073 192.47959 0
250.12123 194.97968 0
250.12172 197.47975 0
250.12220 199.97983 0
250.12269 202.47989 0
250.12317 204.97995 0
250.12365 207.48000 0
250.12413 209.98005 0
250.12461 212.48009 0
250.12509 214.98012 0
250.12558 217.48015 0
250.12606 219.98017 0
250.12655 222.48019 0
250.12704 224.98021 0
250.12753 227.48022 0
250.12803 229.98022 0
250.12853 232.48023 0
250.12904 234.98023 0
250.12954 237.48023 0
250.13005 239.98022 0
250.13057 242.48022 0
250.13109 244.98022 0
250.13160 247.48022 0
250.13199 249.35522 0
249.50681 249.98035 0
247.63087 249.98074 0
245.12962 249.98126 0
242.62837 249.98177 0
240.12713 249.98230 0
237.62588 249.98282 0
235.12463 249.98335 0
232.62338 249.98388 0
230.12212 249.98441 0
227.62087 249.98495 0
225.11961 249.98549 0
222.61834 249.98604 0
220.11707 249.98658 0
217.61580 249.98713 0
215.11452 249.98769 0
212.61324 249.98824 0
210.11195 249.98879 0
207.61066 249.98934 0
205.10936 249.98990 0
202.60805 249.99045 0
200.10674 249.99100 0
197.60542 249.99155 0
195.10409 249.99209 0
192.60276 249.99263 0
190.10142 249.99317 0
187.60007 249.99370 0
185.09872 249.99423 0
182.59736 249.99476 0
180.09600 249.99527 0
177.59463 249.99578 0
175.09325 249.99628 0
172.59187 249.99678 0
170.09048 249.99726 0
167.58909 249.99774 0
165.08769 249.99821 0
162.58629 249.99867 0
160.08488 249.99911 0
157.58346 249.99955 0
155.08205 249.99998 0
152.58062 250.00039 0
150.07920 250.00079 0
147.57777 250.00119 0
145.07633 250.00156 0
142.57489 250.00193 0
140.07345 250.00228 0
137.57201 250.00262 0
135.07057 250.00294 0
132.56912 250.00326 0
130.06767 250.00355 0
127.56622 250.00383 0
125.06477 250.00410 0
122.56331 250.00435 0
120.06186 250.00459 0
117.56041 250.00481 0
115.05895 250.00502 0
112.55750 250.00521 0
110.05605 250.00538 0
107.55460 250.00554 0
105.05315 250.00568 0
102.55170 250.00581 0
100.05026 250.00592 0
97.54881 250.00602 0
95.04738 250.00610 0
92.54594 250.00616 0
90.04451 250.00620 0
87.54308 250.00624 0
85.04166 250.00625 0
82.54024 250.00625 0
80.03883 250.00623 0
77.53742 250.00620 0
75.03603 250.00616 0
72.53463 250.00609 0
70.03325 250.00602 0
67.53187 250.00593 0
65.03050 250.00582 0
62.52914 250.00570 0
60.02779 250.00557 0
57.52645 250.00542 0
55.02512 250.00526 0
52.52379 250.00509 0
50.02248 250.00490 0
47.52119 250.00471 0
45.01990 250.00450 0
42.51863 250.00428 0
40.01737 250.00406 0
37.51612 250.00382 0
35.01489 250.00357 0
32.51367 250.00332 0
30.01247 250.00306 0
27.51129 250.00279 0
25.01013 250.00252 0
22.50898 250.00225 0
20.00786 250.00197 0
17.50675 250.00169 0
15.00568 250.00141 0
12.50463 250.00113 0
10.00361 250.00086 0
7.50262 250.00060 0
5.00168 250.00036 0
2.50079 250.00015 0
0.62518 250.00003 0
0.00000 249.62500 0
0.00000 248.50000 0
0.00000 247.00000 0
0.00000 245.50000 0
0.00000 244.00000 0
0.00000 242.50000 0
0.00000 241.00000 0
0.00000 239.50000 0
0.00000 238.00000 0
0.00000 236.50000 0
0.00000 235.00000 0
0.00000 233.50000 0
0.00000 232.00000 0
0.00000 230.50000 0
0.00000 229.00000 0
0.00000 227.50000 0
0.00000 226.00000 0
0.00000 224.50000 0
0.00000 223.00000 0
0.00000 221.50000 0
0.00000 220.00000 0
0.00000 218.50000 0
0.00000 217.00000 0
0.00000 215.50000 0
0.00000 214.00000 0
0.00000 212.50000 0
0.00000 211.00000 0
0.00000 209.50000 0
0.00000 208.00000 0
0.00000 206.50000 0
0.00000 205.00000 0
0.00000 203.50000 0
0.00000 202.00000 0
0.00000 200.50000 0
0.00000 199.00000 0
0.00000 197.50000 0
0.00000 196.00000 0
0.00000 194.50000 0
0.00000 193.00000 0
0.00000 191.50000 0
0.00000 190.00000 0
0.00000 188.50000 0
0.00000 187.00000 0
0.00000 185.50000 0
0.00000 184.00000 0
0.00000 182.50000 0
0.00000 181.00000 0
0.00000 179.50000 0
0.00000 178.00000 0
0.00000 176.50000 0
0.00000 175.00000 0
0.00000 173.50000 0
0.00000 172.00000 0
0.00000 170.50000 0
0.00000 169.00000 0
0.00000 167.50000 0
0.00000 166.00000 0
0.00000 164.50000 0
0.00000 163.00000 0
0.00000 161.50000 0
0.00000 160.00000 0
0.00000 158.50000 0
0.00000 157.00000 0
0.00000 155.50000 0
0.00000 154.00000 0
0.00000 152.50000 0
0.00000 151.00000 0
0.00000 149.50000 0
0.00000 148.00000 0
0.00000 146.50000 0
0.00000 145.00000 0
0.00000 143.50000 0
0.00000 142.00000 0
0.00000 140.50000 0
0.00000 139.00000 0
0.00000 137.50000 0
0.00000 136.00000 0
0.00000 134.50000 0
0.00000 133.00000 0
0.00000 131.50000 0
0.00000 130.00000 0
0.00000 128.50000 0
0.00000 127.00000 0
0.00000 125.50000 0
0.00000 124.00000 0
0.00000 122.50000 0
0.00000 121.00000 0
0.00000 119.50000 0
0.00000 118.00000 0
0.00000 116.50000 0
0.00000 115.00000 0
0.00000 113.50000 0
0.00000 112.00000 0
0.00000 110.50000 0
0.00000 109.00000 0
0.00000 107.50000 0
0.00000 106.00000 0
0.00000 104.50000 0
0.00000 103.00000 0
0.00000 101.50000 0
0.00000 100.37500 0
0.25149 99.74922 0
1.00371 98.99871 0
2.00597 97.99862 0
3.00782 96.99877 0
4.00941 95.99902 0
5.01081 94.99932 0
6.01209 93.99965 0
7.01325 93.00001 0
8.01432 92.00038 0
9.01531 91.00076 0
10.01624 90.00116 0
11.01710 89.00155 0
12.01791 88.00196 0
13.01867 87.00236 0
14.01939 86.00276 0
15.02006 85.00317 0
16.02069 84.00357 0
17.02128 83.00397 0
18.02184 82.00437 0
19.02237 81.00477 0
20.02287 80.00517 0
21.02333 79.00556 0
22.02377 78.00595 0
23.02417 77.00633 0
24.02456 76.00671 0
25.02491 75.00709 0
26.02524 74.00746 0
27.02555 73.00783 0
28.02583 72.00820 0
29.02609 71.00855 0
30.02633 70.00891 0
31.02655 69.00926 0
32.02674 68.00960 0
33.02691 67.00994 0
34.02707 66.01027 0
35.02720 65.01060 0
36.02732 64.01092 0
37.02741 63.01124 0
38.02749 62.01154 0
39.02754 61.01185 0
40.02758 60.01214 0
41.02760 59.01243 0
42.02760 58.01272 0
43.02759 57.01299 0
44.02755 56.01326 0
45.02750 55.01352 0
46.02743 54.01378 0
47.02735 53.01403 0
48.02725 52.01427 0
49.02713 51.01450 0
50.02699 50.01472 0
51.02684 49.01494 0
52.02667 48.01515 0
53.02648 47.01534 0
54.02628 46.01553 0
55.02606 45.01572 0
56.02583 44.01589 0
57.02558 43.01605 0
58.02531 42.01620 0
59.02502 41.01634 0
60.02472 40.01648 0
61.02441 39.01660 0
62.02408 38.01671 0
63.02373 37.01681 0
64.02337 36.01690 0
65.02299 35.01697 0
66.02259 34.01704 0
67.02218 33.01709 0
68.02175 32.01712 0
69.02131 31.01715 0
70.02085 30.01716 0
71.02037 29.01715 0
72.01988 28.01713 0
73.01937 27.01710 0
74.01884 26.01704 0
75.01830 25.01697 0
76.01774 24.01689 0
77.01717 23.01678 0
78.01658 22.01665 0
79.01597 21.01650 0
80.01534 20.01633 0
81.01470 19.01614 0
82.01404 18.01592 0
83.01336 17.01567 0
84.01267 16.01540 0
85.01195 15.01509 0
86.01122 14.01475 0
87.01047 13.01438 0
88.00970 12.01397 0
89.00892 11.01351 0
90.00811 10.01300 0
91.00728 9.01244 0
92.00644 8.01182 0
93.00557 7.01112 0
94.00468 6.01034 0
95.00378 5.00945 0
96.00285 4.00843 0
97.00192 3.00723 0
98.00098 2.00575 0
99.00011 1.00382 0
99.74971 0.25172 0
100.03647 100.01084 0
100.04496 175.00705 0
175.05933 99.99880 0
175.08006 174.99672 0
      </DataArray>
    </Points>
    <Cells>
      <DataArray type="Int32" Name="connectivity" format="ascii">
0 1
1 2
2 3
3 4
4 5
5 6
6 7
7 8
8 9
9 10
10 11
11 12
12 13
13 14
14 15
15 16
16 17
17 18
18 19
19 20
20 21
21 22
22 23
23 24
24 25
25 26
26 27
27 28
28 29
29 30
30 31
31 32
32 33
33 34
34 35
35 36
36 37
37 38
38 39
39 40
40 41
41 42
42 43
43 44
44 45
45 46
46 47
47 48
48 49
49 50
50 51
51 52
52 53
53 54
54 55
55 56
56 57
57 58
58 59
59 60
60 61
61 62
62 63
63 64
64 65
65 66
66 67
67 68
68 69
69 70
70 71
71 72
72 73
73 74
74 75
75 76
76 77
77 78
78 79
79 80
80 81
81 82
82 83
83 84
84 85
85 86
86 87
87 88
88 89
89 90
90 91
91 92
92 93
93 94
94 95
95 96
96 97
97 98
98 99
99 100
101 102
102 103
103 104
104 105
105 106
106 107
107 108
108 109
109 110
110 111
111 112
112 113
113 114
114 115
115 116
116 117
117 118
118 119
119 120
120 121
121 122
122 123
123 124
124 125
125 126
126 127
127 128
128 129
129 130
130 131
131 132
132 133
133 134
134 135
135 136
136 137
137 138
138 139
139 140
140 141
141 142
142 143
143 144
144 145
145 146
146 147
147 148
148 149
149 150
150 151
151 152
152 153
153 154
154 155
155 156
156 157
157 158
158 159
159 160
160 161
161 162
162 163
163 164
164 165
165 166
166 167
167 168
168 169
169 170
170 171
171 172
172 173
173 174
174 175
175 176
176 177
177 178
178 179
179 180
180 181
181 182
182 183
183 184
184 185
185 186
186 187
187 188
188 189
189 190
190 191
191 192
192 193
193 194
194 195
195 196
196 197
197 198
198 199
199 200
200 201
202 203
203 204
204 205
205 206
206 207
207 208
208 209
209 210
210 211
211 212
212 213
213 214
214 215
215 216
216 217
217 218
218 219
219 220
220 221
221 222
222 223
223 224
224 225
225 226
226 227
227 228
228 229
229 230
230 231
231 232
232 233
233 234
234 235
235 236
236 237
237 238
238 239
239 240
240 241
241 242
242 243
243 244
244 245
245 246
246 247
247 248
248 249
249 250
250 251
251 252
252 253
253 254
254 255
255 256
256 257
257 258
258 259
259 260
260 261
261 262
262 263
263 264
264 265
265 266
266 267
267 268
268 269
269 270
270 271
271 272
272 273
273 274
274 275
275 276
276 277
277 278
278 279
279 280
280 281
281 282
282 283
283 284
284 285
285 286
286 287
287 288
288 289
289 290
290 291
291 292
292 293
293 294
294 295
295 296
296 297
297 298
298 299
299 300
300 301
301 302
303 304
304 305
305 306
306 307
307 308
308 309
309 310
310 311
311 312
312 313
313 314
314 315
315 316
316 317
317 318
318 319
319 320
320 321
321 322
322 323
323 324
324 325
325 326
326 327
327 328
328 329
329 330
330 331
331 332
332 333
333 334
334 335
335 336
336 337
337 338
338 339
339 340
340 341
341 342
342 343
343 344
344 345
345 346
346 347
347 348
348 349
349 350
350 351
351 352
352 353
353 354
354 355
355 356
356 357
357 358
358 359
359 360
360 361
361 362
362 363
363 364
364 365
365 366
366 367
367 368
368 369
369 370
370 371
371 372
372 373
373 374
374 375
375 376
376 377
377 378
378 379
379 380
380 381
381 382
382 383
383 384
384 385
385 386
386 387
387 388
388 389
389 390
390 391
391 392
392 393
393 394
394 395
395 396
396 397
397 398
398 399
399 400
400 401
401 402
402 403
404 405
405 406
406 407
407 408
408 409
409 410
410 411
411 412
412 413
413 414
414 415
415 416
416 417
417 418
418 419
419 420
420 421
421 422
422 423
423 424
424 425
425 426
426 427
427 428
428 429
429 430
430 431
431 432
432 433
433 434
434 435
435 436
436 437
437 438
438 439
439 440
440 441
441 442
442 443
443 444
444 445
445 446
446 447
447 448
448 449
449 450
450 451
451 452
452 453
453 454
454 455
455 456
456 457
457 458
458 459
459 460
460 461
461 462
462 463
463 464
464 465
465 466
466 467
467 468
468 469
469 470
470 471
471 472
472 473
473 474
474 475
475 476
476 477
477 478
478 479
479 480
480 481
481 482
482 483
483 484
484 485
485 486
486 487
487 488
488 489
489 490
490 491
491 492
492 493
493 494
494 495
495 496
496 497
497 498
498 499
499 500
500 501
501 502
502 503
503 504
505
506
507
508
      </DataArray>
      <DataArray type="Int32" Name="offsets" format="ascii">
2
4
6
8
10
12
14
16
18
20
22
24
26
28
30
32
34
36
38
40
42
44
46
48
50
52
54
56
58
60
62
64
66
68
70
72
74
76
78
80
82
84
86
88
90
92
94
96
98
100
102
104
106
108
110
112
114
116
118
120
122
124
126
128
130
132
134
136
138
140
142
144
146
148
150
152
154
156
158
160
162
164
166
168
170
172
174
176
178
180
182
184
186
188
190
192
194
196
198
200
202
204
206
208
210
212
214
216
218
220
222
224
226
228
230
232
234
236
238
240
242
244
246
248
250
252
254
256
258
260
262
264
266
268
270
272
274
276
278
280
282
284
286
288
290
292
294
296
298
300
302
304
306
308
310
312
314
316
318
320
322
324
326
328
330
332
334
336
338
340
342
344
346
348
350
352
354
356
358
360
362
364
366
368
370
372
374
376
378
380
382
384
386
388
390
392
394
396
398
400
402
404
406
408
410
412
414
416
418
420
422
424
426
428
430
432
434
436
438
440
442
444
446
448
450
452
454
456
458
460
462
464
466
468
470
472
474
476
478
480
482
484
486
488
490
492
494
496
498
500
502
504
506
508
510
512
514
516
518
520
522
524
526
528
530
532
534
536
538
540
542
544
546
548
550
552
554
556
558
560
562
564
566
568
570
572
574
576
578
580
582
584
586
588
590
592
594
596
598
600
602
604
606
608
610
612
614
616
618
620
622
624
626
628
630
632
634
636
638
640
642
644
646
648
650
652
654
656
658
660
662
664
666
668
670
672
674
676
678
680
682
684
686
688
690
692
694
696
698
700
702
704
706
708
710
712
714
716
718
720
722
724
726
728
730
732
734
736
738
740
742
744
746
748
750
752
754
756
758
760
762
764
766
768
770
772
774
776
778
780
782
784
786
788
790
792
794
796
798
800
802
804
806
808
810
812
814
816
818
820
822
824
826
828
830
832
834
836
838
840
842
844
846
848
850
852
854
856
858
860
862
864
866
868
870
872
874
876
878
880
882
884
886
888
890
892
894
896
898
900
902
904
906
908
910
912
914
916
918
920
922
924
926
928
930
932
934
936
938
940
942
944
946
948
950
952
954
956
958
960
962
964
966
968
970
972
974
976
978
980
982
984
986
988
990
992
994
996
998
1000
1001
1002
1003
1004
      </DataArray>
      <DataArray type="UInt8" Name="types" format="ascii">
68
68
68
68
68
68
68
68
68
68
68
68
68
68
68
68
68
68
68
68
68
68
68
68
68
68
68
68
68
68
68
68
68
68
68
68
68
68
68
68
68
68
68
68
68
68
68
68
68
68
68
68
68
68
68
68
68
68
68
68
68
68
68
68
68
68
68
68
68
68
68
68
68
68
68
68
68
68
68
68
68
68
68
68
68
68
68
68
68
68
68
68
68
68
68
68
68
68
68
68
68
68
68
68
68
68
68
68
68
68
68
68
68
68
68
68
68
68
68
68
68
68
68
68
68
68
68
68
68
68
68
68
68
68
68
68
68
68
68
68
68
68
68
68
68
68
68
68
68
68
68
68
68
68
68
68
68
68
68
68
68
68
68
68
68
68
68
68
68
68
68
68
68
68
68
68
68
68
68
68
68
68
68
68
68
68
68
68
68
68
68
68
68
68
68
68
68
68
68
68
68
68
68
68
68
68
68
68
68
68
68
68
68
68
68
68
68
68
68
68
68
68
68
68
68
68
68
68
68
68
68
68
68
68
68
68
68
68
68
68
68
68
68
68
68
68
68
68
68
68
68
68
68
68
68
68
68
68
68
68
68
68
68
68
68
68
68
68
68
68
68
68
68
68
68
68
68
68
68
68
68
68
68
68
68
68
68
68
68
68
68
68
68
68
68
68
68
68
68
68
68
68
68
68
68
68
68
68
68
68
68
68
68
68
68
68
68
68
68
68
68
68
68
68
68
68
68
68
68
68
68
68
68
68
68
68
68
68
68
68
68
68
68
68
68
68
68
68
68
68
68
68
68
68
68
68
68
68
68
68
68
68
68
68
68
68
68
68
68
68
68
68
68
68
68
68
68
68
68
68
68
68
68
68
68
68
68
68
68
68
68
68
68
68
68
68
68
68
68
68
68
68
68
68
68
68
68
68
68
68
68
68
68
68
68
68
68
68
68
68
68
68
68
68
68
68
68
68
68
68
68
68
68
68
68
68
68
68
68
68
68
68
68
68
68
68
68
68
68
68
68
68
68
68
68
68
68
68
68
68
68
68
68
68
68
68
68
68
68
68
68
68
68
68
68
68
68
68
68
68
68
68
68
68
68
68
68
68
68
68
68
68
68
68
68
68
68
68
68
68
1
1
1
1
      </DataArray>
    </Cells>
    <PointData>
      <DataArray type="Float64" NumberOfComponents="2" Name="Displacements" format="ascii">
0.00000 0.00000
0.00000 0.00000
0.00000 0.00000
0.00000 0.00000
0.00000 0.00000
0.00000 0.00000
0.00000 0.00000
0.00000 0.00000
0.00000 0.00000
0.00000 0.00000
0.00000 0.00000
0.00000 0.00000
0.00000 0.00000
0.00000 0.00000
0.00000 0.00000
0.00000 0.00000
0.00000 0.00000
0.00000 0.00000
0.00000 0.00000
0.00000 0.00000
0.00000 0.00000
0.00000 0.00000
0.00000 0.00000
0.00000 0.00000
0.00000 0.00000
0.00000 0.00000
0.00000 0.00000
0.00000 0.00000
0.00000 0.00000
0.00000 0.00000
0.00000 0.00000
0.00000 0.00000
0.00000 0.00000
0.00000 0.00000
0.00000 0.00000
0.00000 0.00000
0.00000 0.00000
0.00000 0.00000
0.00000 0.00000
0.00000 0.00000
0.00000 0.00000
0.00000 0.00000
0.00000 0.00000
0.00000 0.00000
0.00000 0.00000
0.00000 0.00000
0.00000 0.00000
0.00000 0.00000
0.00000 0.00000
0.00000 0.00000
0.00000 0.00000
0.00000 0.00000
0.00000 0.00000
0.00000 0.00000
0.00000 0.00000
0.00000 0.00000
0.00000 0.00000
0.00000 0.00000
0.00000 0.00000
0.00000 0.00000
0.00000 0.00000
0.00000 0.00000
0.00000 0.00000
0.00000 0.00000
0.00000 0.00000
0.00000 0.00000
0.00000 0.00000
0.00000 0.00000
0.00000 0.00000
0.00000 0.00000
0.00000 0.00000
0.00000 0.00000
0.00000 0.00000
0.00000 0.00000
0.00000 0.00000
0.00000 0.00000
0.00000 0.00000
0.00000 0.00000
0.00000 0.00000
0.00000 0.00000
0.00000 0.00000
0.00000 0.00000
0.00000 0.00000
0.00000 0.00000
0.00000 0.00000
0.00000 0.00000
0.00000 0.00000
0.00000 0.00000
0.00000 0.00000
0.00000 0.00000
0.00000 0.00000
0.00000 0.00000
0.00000 0.00000
0.00000 0.00000
0.00000 0.00000
0.00000 0.00000
0.00000 0.00000
0.00000 0.00000
0.00000 0.00000
0.00000 0.00000
0.00000 0.00000
0.00147 -0.00245
0.00483 -0.00678
0.00914 -0.01081
0.01317 -0.01386
0.01697 -0.01632
0.02058 -0.01838
0.02402 -0.02013
0.02731 -0.02163
0.03048 -0.02292
0.03353 -0.02405
0.03647 -0.02504
0.03932 -0.02589
0.04206 -0.02664
0.04472 -0.02729
0.04729 -0.02785
0.04979 -0.02833
0.05221 -0.02874
0.05455 -0.02909
0.05683 -0.02938
0.05904 -0.02961
0.06118 -0.02980
0.06326 -0.02995
0.06528 -0.03005
0.06725 -0.03012
0.06916 -0.03015
0.07101 -0.03015
0.07281 -0.03012
0.07456 -0.03007
0.07626 -0.02999
0.07791 -0.02990
0.07951 -0.02978
0.08107 -0.02964
0.08258 -0.02949
0.08405 -0.02932
0.08548 -0.02914
0.08686 -0.02895
0.08821 -0.02874
0.08951 -0.02853
0.09078 -0.02831
0.09202 -0.02808
0.09321 -0.02784
0.09438 -0.02760
0.09550 -0.02736
0.09660 -0.02711
0.09767 -0.02686
0.09870 -0.02661
0.09970 -0.02636
0.10068 -0.02610
0.10162 -0.02585
0.10254 -0.02559
0.10344 -0.02534
0.10431 -0.02509
0.10515 -0.02485
0.10597 -0.02460
0.10677 -0.02436
0.10755 -0.02412
0.10830 -0.02389
0.10904 -0.02366
0.10975 -0.02344
0.11045 -0.02322
0.11113 -0.02301
0.11179 -0.02280
0.11244 -0.02260
0.11307 -0.02240
0.11369 -0.02222
0.11429 -0.02203
0.11488 -0.02186
0.11546 -0.02169
0.11603 -0.02153
0.11658 -0.02138
0.11713 -0.02123
0.11767 -0.02109
0.11819 -0.02096
0.11872 -0.02083
0.11923 -0.02072
0.11974 -0.02061
0.12024 -0.02051
0.12073 -0.02041
0.12123 -0.02032
0.12172 -0.02025
0.12220 -0.02017
0.12269 -0.02011
0.12317 -0.02005
0.12365 -0.02000
0.12413 -0.01995
0.12461 -0.01991
0.12509 -0.01988
0.12558 -0.01985
0.12606 -0.01983
0.12655 -0.01981
0.12704 -0.01979
0.12753 -0.01978
0.12803 -0.01978
0.12853 -0.01977
0.12904 -0.01977
0.12954 -0.01977
0.13005 -0.01978
0.13057 -0.01978
0.13109 -0.01978
0.13160 -0.01978
0.13199 -0.01978
0.13181 -0.01965
0.13087 -0.01926
0.12962 -0.01874
0.12837 -0.01823
0.12713 -0.01770
0.12588 -0.01718
0.12463 -0.01665
0.12338 -0.01612
0.12212 -0.01559
0.12087 -0.01505
0.11961 -0.01451
0.11834 -0.01396
0.11707 -0.01342
0.11580 -0.01287
0.11452 -0.01231
0.11324 -0.01176
0.11195 -0.01121
0.11066 -0.01066
0.10936 -0.01010
0.10805 -0.00955
0.10674 -0.00900
0.10542 -0.00845
0.10409 -0.00791
0.10276 -0.00737
0.10142 -0.00683
0.10007 -0.00630
0.09872 -0.00577
0.09736 -0.00524
0.09600 -0.00473
0.09463 -0.00422
0.09325 -0.00372
0.09187 -0.00322
0.09048 -0.00274
0.08909 -0.00226
0.08769 -0.00179
0.08629 -0.00133
0.08488 -0.00089
0.08346 -0.00045
0.08205 -0.00002
0.08062 0.00039
0.07920 0.00079
0.07777 0.00119
0.07633 0.00156
0.07489 0.00193
0.07345 0.00228
0.07201 0.00262
0.07057 0.00294
0.06912 0.00326
0.06767 0.00355
0.06622 0.00383
0.06477 0.00410
0.06331 0.00435
0.06186 0.00459
0.06041 0.00481
0.05895 0.00502
0.05750 0.00521
0.05605 0.00538
0.05460 0.00554
0.05315 0.00568
0.05170 0.00581
0.05026 0.00592
0.04881 0.00602
0.04738 0.00610
0.04594 0.00616
0.04451 0.00620
0.04308 0.00624
0.04166 0.00625
0.04024 0.00625
0.03883 0.00623
0.03742 0.00620
0.03603 0.00616
0.03463 0.00609
0.03325 0.00602
0.03187 0.00593
0.03050 0.00582
0.02914 0.00570
0.02779 0.00557
0.02645 0.00542
0.02512 0.00526
0.02379 0.00509
0.02248 0.00490
0.02119 0.00471
0.01990 0.00450
0.01863 0.00428
0.01737 0.00406
0.01612 0.00382
0.01489 0.00357
0.01367 0.00332
0.01247 0.00306
0.01129 0.00279
0.01013 0.00252
0.00898 0.00225
0.00786 0.00197
0.00675 0.00169
0.00568 0.00141
0.00463 0.00113
0.00361 0.00086
0.00262 0.00060
0.00168 0.00036
0.00079 0.00015
0.00018 0.00003
0.00000 0.00000
0.00000 0.00000
0.00000 0.00000
0.00000 0.00000
0.00000 0.00000
0.00000 0.00000
0.00000 0.00000
0.00000 0.00000
0.00000 0.00000
0.00000 0.00000
0.00000 0.00000
0.00000 0.00000
0.00000 0.00000
0.00000 0.00000
0.00000 0.00000
0.00000 0.00000
0.00000 0.00000
0.00000 0.00000
0.00000 0.00000
0.00000 0.00000
0.00000 0.00000
0.00000 0.00000
0.00000 0.00000
0.00000 0.00000
0.00000 0.00000
0.00000 0.00000
0.00000 0.00000
0.00000 0.00000
0.00000 0.00000
0.00000 0.00000
0.00000 0.00000
0.00000 0.00000
0.00000 0.00000
0.00000 0.00000
0.00000 0.00000
0.00000 0.00000
0.00000 0.00000
0.00000 0.00000
0.00000 0.00000
0.00000 0.00000
0.00000 0.00000
0.00000 0.00000
0.00000 0.00000
0.00000 0.00000
0.00000 0.00000
0.00000 0.00000
0.00000 0.00000
0.00000 0.00000
0.00000 0.00000
0.00000 0.00000
0.00000 0.00000
0.00000 0.00000
0.00000 0.00000
0.00000 0.00000
0.00000 0.00000
0.00000 0.00000
0.00000 0.00000
0.00000 0.00000
0.00000 0.00000
0.00000 0.00000
0.00000 0.00000
0.00000 0.00000
0.00000 0.00000
0.00000 0.00000
0.00000 0.00000
0.00000 0.00000
0.00000 0.00000
0.00000 0.00000
0.00000 0.00000
0.00000 0.00000
0.00000 0.00000
0.00000 0.00000
0.00000 0.00000
0.00000 0.00000
0.00000 0.00000
0.00000 0.00000
0.00000 0.00000
0.00000 0.00000
0.00000 0.00000
0.00000 0.00000
0.00000 0.00000
0.00000 0.00000
0.00000 0.00000
0.00000 0.00000
0.00000 0.00000
0.00000 0.00000
0.00000 0.00000
0.00000 0.00000
0.00000 0.00000
0.00000 0.00000
0.00000 0.00000
0.00000 0.00000
0.00000 0.00000
0.00000 0.00000
0.00000 0.00000
0.00000 0.00000
0.00000 0.00000
0.00000 0.00000
0.00000 0.00000
0.00000 0.00000
0.00000 0.00000
0.00149 -0.00078
0.00371 -0.00129
0.00597 -0.00138
0.00782 -0.00123
0.00941 -0.00098
0.01081 -0.00068
0.01209 -0.00035
0.01325 0.00001
0.01432 0.00038
0.01531 0.00076
0.01624 0.00116
0.01710 0.00155
0.01791 0.00196
0.01867 0.00236
0.01939 0.00276
0.02006 0.00317
0.02069 0.00357
0.02128 0.00397
0.02184 0.00437
0.02237 0.00477
0.02287 0.00517
0.02333 0.00556
0.02377 0.00595
0.02417 0.00633
0.02456 0.00671
0.02491 0.00709
0.02524 0.00746
0.02555 0.00783
0.02583 0.00820
0.02609 0.00855
0.02633 0.00891
0.02655 0.00926
0.02674 0.00960
0.02691 0.00994
0.02707 0.01027
0.02720 0.01060
0.02732 0.01092
0.02741 0.01124
0.02749 0.01154
0.02754 0.01185
0.02758 0.01214
0.02760 0.01243
0.02760 0.01272
0.02759 0.01299
0.02755 0.01326
0.02750 0.01352
0.02743 0.01378
0.02735 0.01403
0.02725 0.01427
0.02713 0.01450
0.02699 0.01472
0.02684 0.01494
0.02667 0.01515
0.02648 0.01534
0.02628 0.01553
0.02606 0.01572
0.02583 0.01589
0.02558 0.01605
0.02531 0.01620
0.02502 0.01634
0.02472 0.01648
0.02441 0.01660
0.02408 0.01671
0.02373 0.01681
0.02337 0.01690
0.02299 0.01697
0.02259 0.01704
0.02218 0.01709
0.02175 0.01712
0.02131 0.01715
0.02085 0.01716
0.02037 0.01715
0.01988 0.01713
0.01937 0.01710
0.01884 0.01704
0.01830 0.01697
0.01774 0.01689
0.01717 0.01678
0.01658 0.01665
0.01597 0.01650
0.01534 0.01633
0.01470 0.01614
0.01404 0.01592
0.01336 0.01567
0.01267 0.01540
0.01195 0.01509
0.01122 0.01475
0.01047 0.01438
0.00970 0.01397
0.00892 0.01351
0.00811 0.01300
0.00728 0.01244
0.00644 0.01182
0.00557 0.01112
0.00468 0.01034
0.00378 0.00945
0.00285 0.00843
0.00192 0.00723
0.00098 0.00575
0.00011 0.00382
-0.00029 0.00172
0.03647 0.01084
0.04496 0.00705
0.05933 -0.00120
0.08006 -0.00328
      </DataArray>
      <DataArray type="Float64" NumberOfComponents="4" Name="Stress" format="ascii">
0 0 0 0
0 0 0 0
0 0 0 0
0 0 0 0
0 0 0 0
0 0 0 0
0 0 0 0
0 0 0 0
0 0 0 0
0 0 0 0
0 0 0 0
0 0 0 0
0 0 0 0
0 0 0 0
0 0 0 0
0 0 0 0
0 0 0 0
0 0 0 0
0 0 0 0
0 0 0 0
0 0 0 0
0 0 0 0
0 0 0 0
0 0 0 0
0 0 0 0
0 0 0 0
0 0 0 0
0 0 0 0
0 0 0 0
0 0 0 0
0 0 0 0
0 0 0 0
0 0 0 0
0 0 0 0
0 0 0 0
0 0 0 0
0 0 0 0
0 0 0 0
0 0 0 0
0 0 0 0
0 0 0 0
0 0 0 0
0 0 0 0
0 0 0 0
0 0 0 0
0 0 0 0
0 0 0 0
0 0 0 0
0 0 0 0
0 0 0 0
0 0 0 0
0 0 0 0
0 0 0 0
0 0 0 0
0 0 0 0
0 0 0 0
0 0 0 0
0 0 0 0
0 0 0 0
0 0 0 0
0 0 0 0
0 0 0 0
0 0 0 0
0 0 0 0
0 0 0 0
0 0 0 0
0 0 0 0
0 0 0 0
0 0 0 0
0 0 0 0
0 0 0 0
0 0 0 0
0 0 0 0
0 0 0 0
0 0 0 0
0 0 0 0
0 0 0 0
0 0 0 0
0 0 0 0
0 0 0 0
0 0 0 0
0 0 0 0
0 0 0 0
0 0 0 0
0 0 0 0
0 0 0 0
0 0 0 0
0 0 0 0
0 0 0 0
0 0 0 0
0 0 0 0
0 0 0 0
0 0 0 0
0 0 0 0
0 0 0 0
0 0 0 0
0 0 0 0
0 0 0 0
0 0 0 0
0 0 0 0
0 0 0 0
0 0 0 0
0 0 0 0
0 0 0 0
0 0 0 0
0 0 0 0
0 0 0 0
0 0 0 0
0 0 0 0
0 0 0 0
0 0 0 0
0 0 0 0
0 0 0 0
0 0 0 0
0 0 0 0
0 0 0 0
0 0 0 0
0 0 0 0
0 0 0 0
0 0 0 0
0 0 0 0
0 0 0 0
0 0 0 0
0 0 0 0
0 0 0 0
0 0 0 0
0 0 0 0
0 0 0 0
0 0 0 0
0 0 0 0
0 0 0 0
0 0 0 0
0 0 0 0
0 0 0 0
0 0 0 0
0 0 0 0
0 0 0 0
0 0 0 0
0 0 0 0
0 0 0 0
0 0 0 0
0 0 0 0
0 0 0 0
0 0 0 0
0 0 0 0
0 0 0 0
0 0 0 0
0 0 0 0
0 0 0 0
0 0 0 0
0 0 0 0
0 0 0 0
0 0 0 0
0 0 0 0
0 0 0 0
0 0 0 0
0 0 0 0
0 0 0 0
0 0 0 0
0 0 0 0
0 0 0 0
0 0 0 0
0 0 0 0
0 0 0 0
0 0 0 0
0 0 0 0
0 0 0 0
0 0 0 0
0 0 0 0
0 0 0 0
0 0 0 0
0 0 0 0
0 0 0 0
0 0 0 0
0 0 0 0
0 0 0 0
0 0 0 0
0 0 0 0
0 0 0 0
0 0 0 0
0 0 0 0
0 0 0 0
0 0 0 0
0 0 0 0
0 0 0 0
0 0 0 0
0 0 0 0
0 0 0 0
0 0 0 0
0 0 0 0
0 0 0 0
0 0 0 0
0 0 0 0
0 0 0 0
0 0 0 0
0 0 0 0
0 0 0 0
0 0 0 0
0 0 0 0
0 0 0 0
0 0 0 0
0 0 0 0
0 0 0 0
0 0 0 0
0 0 0 0
0 0 0 0
0 0 0 0
0 0 0 0
0 0 0 0
0 0 0 0
0 0 0 0
0 0 0 0
0 0 0 0
0 0 0 0
0 0 0 0
0 0 0 0
0 0 0 0
0 0 0 0
0 0 0 0
0 0 0 0
0 0 0 0
0 0 0 0
0 0 0 0
0 0 0 0
0 0 0 0
0 0 0 0
0 0 0 0
0 0 0 0
0 0 0 0
0 0 0 0
0 0 0 0
0 0 0 0
0 0 0 0
0 0 0 0
0 0 0 0
0 0 0 0
0 0 0 0
0 0 0 0
0 0 0 0
0 0 0 0
0 0 0 0
0 0 0 0
0 0 0 0
0 0 0 0
0 0 0 0
0 0 0 0
0 0 0 0
0 0 0 0
0 0 0 0
0 0 0 0
0 0 0 0
0 0 0 0
0 0 0 0
0 0 0 0
0 0 0 0
0 0 0 0
0 0 0 0
0 0 0 0
0 0 0 0
0 0 0 0
0 0 0 0
0 0 0 0
0 0 0 0
0 0 0 0
0 0 0 0
0 0 0 0
0 0 0 0
0 0 0 0
0 0 0 0
0 0 0 0
0 0 0 0
0 0 0 0
0 0 0 0
0 0 0 0
0 0 0 0
0 0 0 0
0 0 0 0
0 0 0 0
0 0 0 0
0 0 0 0
0 0 0 0
0 0 0 0
0 0 0 0
0 0 0 0
0 0 0 0
0 0 0 0
0 0 0 0
0 0 0 0
0 0 0 0
0 0 0 0
0 0 0 0
0 0 0 0
0 0 0 0
0 0 0 0
0 0 0 0
0 0 0 0
0 0 0 0
0 0 0 0
0 0 0 0
0 0 0 0
0 0 0 0
0 0 0 0
0 0 0 0
0 0 0 0
0 0 0 0
0 0 0 0
0 0 0 0
0 0 0 0
0 0 0 0
0 0 0 0
0 0 0 0
0 0 0 0
0 0 0 0
0 0 0 0
0 0 0 0
0 0 0 0
0 0 0 0
0 0 0 0
0 0 0 0
0 0 0 0
0 0 0 0
0 0 0 0
0 0 0 0
0 0 0 0
0 0 0 0
0 0 0 0
0 0 0 0
0 0 0 0
0 0 0 0
0 0 0 0
0 0 0 0
0 0 0 0
0 0 0 0
0 0 0 0
0 0 0 0
0 0 0 0
0 0 0 0
0 0 0 0
0 0 0 0
0 0 0 0
0 0 0 0
0 0 0 0
0 0 0 0
0 0 0 0
0 0 0 0
0 0 0 0
0 0 0 0
0 0 0 0
0 0 0 0
0 0 0 0
0 0 0 0
0 0 0 0
0 0 0 0
0 0 0 0
0 0 0 0
0 0 0 0
0 0 0 0
0 0 0 0
0 0 0 0
0 0 0 0
0 0 0 0
0 0 0 0
0 0 0 0
0 0 0 0
0 0 0 0
0 0 0 0
0 0 0 0
0 0 0 0
0 0 0 0
0 0 0 0
0 0 0 0
0 0 0 0
0 0 0 0
0 0 0 0
0 0 0 0
0 0 0 0
0 0 0 0
0 0 0 0
0 0 0 0
0 0 0 0
0 0 0 0
0 0 0 0
0 0 0 0
0 0 0 0
0 0 0 0
0 0 0 0
0 0 0 0
0 0 0 0
0 0 0 0
0 0 0 0
0 0 0 0
0 0 0 0
0 0 0 0
0 0 0 0
0 0 0 0
0 0 0 0
0 0 0 0
0 0 0 0
0 0 0 0
0 0 0 0
0 0 0 0
0 0 0 0
0 0 0 0
0 0 0 0
0 0 0 0
0 0 0 0
0 0 0 0
0 0 0 0
0 0 0 0
0 0 0 0
0 0 0 0
0 0 0 0
0 0 0 0
0 0 0 0
0 0 0 0
0 0 0 0
0 0 0 0
0 0 0 0
0 0 0 0
0 0 0 0
0 0 0 0
0 0 0 0
0 0 0 0
0 0 0 0
0 0 0 0
0 0 0 0
0 0 0 0
0 0 0 0
0 0 0 0
0 0 0 0
0 0 0 0
0 0 0 0
0 0 0 0
0 0 0 0
0 0 0 0
0 0 0 0
0 0 0 0
0 0 0 0
0 0 0 0
0 0 0 0
0 0 0 0
0 0 0 0
0 0 0 0
0 0 0 0
0 0 0 0
0 0 0 0
0 0 0 0
0 0 0 0
0 0 0 0
0 0 0 0
0 0 0 0
0 0 0 0
0 0 0 0
0 0 0 0
0 0 0 0
0 0 0 0
0 0 0 0
0 0 0 0
0 0 0 0
0 0 0 0
0 0 0 0
0 0 0 0
0 0 0 0
0 0 0 0
0 0 0 0
0 0 0 0
0 0 0 0
0 0 0 0
0 0 0 0
0 0 0 0
0 0 0 0
0 0 0 0
0 0 0 0
0 0 0 0
0 0 0 0
0 0 0 0
0 0 0 0
0 0 0 0
0 0 0 0
0 0 0 0
0 0 0 0
0 0 0 0
0 0 0 0
0 0 0 0
0 0 0 0
0 0 0 0
0 0 0 0
0 0 0 0
0 0 0 0
0 0 0 0
0 0 0 0
0 0 0 0
0 0 0 0
0 0 0 0
0 0 0 0
0 0 0 0
0 0 0 0
0 0 0 0
0 0 0 0
0 0 0 0
0 0 0 0
0 0 0 0
0 0 0 0
0 0 0 0
0 0 0 0
52.66095 5.41740 5.41740 2.94757
91.58038 4.79603 4.79603 28.23882
74.66099 16.51039 16.51039 42.10478
96.47341 -2.35382 -2.35382 64.14750
      </DataArray>
    </PointData>
  </Piece>
  </UnstructuredGrid>
</VTKFile>