<?xml version="1.0"?>
<VTKFile type="UnstructuredGrid">
  <UnstructuredGrid>
  <Piece NumberOfPoints="509" NumberOfCells="504">
    <Points>
      <DataArray type="Float64" NumberOfComponents="3" format="ascii">
100.37500 0.00000 0
101.50000 0.00000 0
103.00000 0.00000 0
104.50000 0.00000 0
106.00000 0.00000 0
107.50000 0.00000 0
109.00000 0.00000 0
110.50000 0.00000 0
112.00000 0.00000 0
113.50000 0.00000 0
115.00000 0.00000 0
116.50000 0.00000 0
118.00000 0.00000 0
119.50000 0.00000 0
121.00000 0.00000 0
122.50000 0.00000 0
124.00000 0.00000 0
125.50000 0.00000 0
127.00000 0.00000 0
128.50000 0.00000 0
130.00000 0.00000 0
131.50000 0.00000 0
133.00000 0.00000 0
134.50000 0.00000 0
136.00000 0.00000 0
137.50000 0.00000 0
139.00000 0.00000 0
140.50000 0.00000 0
142.00000 0.00000 0
143.50000 0.00000 0
145.00000 0.00000 0
146.50000 0.00000 0
148.00000 0.00000 0
149.50000 0.00000 0
151.00000 0.00000 0
152.50000 0.00000 0
154.00000 0.00000 0
155.50000 0.00000 0
157.00000 0.00000 0
158.50000 0.00000 0
160.00000 0.00000 0
161.50000 0.00000 0
163.00000 0.00000 0
164.50000 0.00000 0
166.00000 0.00000 0
167.50000 0.00000 0
169.00000 0.00000 0
170.50000 0.00000 0
172.00000 0.00000 0
173.50000 0.00000 0
175.00000 0.00000 0
176.50000 0.00000 0
178.00000 0.00000 0
179.50000 0.00000 0
181.00000 0.00000 0
182.50000 0.00000 0
184.00000 0.00000 0
185.50000 0.00000 0
187.00000 0.00000 0
188.50000 0.00000 0
190.00000 0.00000 0
191.50000 0.00000 0
193.00000 0.00000 0
194.50000 0.00000 0
196.00000 0.00000 0
197.50000 0.00000 0
199.00000 0.00000 0
200.50000 0.00000 0
202.00000 0.00000 0
203.50000 0.00000 0
205.00000 0.00000 0
206.50000 0.00000 0
208.00000 0.00000 0
209.50000 0.00000 0
211.00000 0.00000 0
212.50000 0.00000 0
214.00000 0.00000 0
215.50000 0.00000 0
217.00000 0.00000 0
218.50000 0.00000 0
220.00000 0.00000 0
221.50000 0.00000 0
223.00000 0.00000 0
224.50000 0.00000 0
226.00000 0.00000 0
227.50000 0.00000 0
229.00000 0.00000 0
230.50000 0.00000 0
232.00000 0.00000 0
233.50000 0.00000 0
235.00000 0.00000 0
236.50000 0.00000 0
238.00000 0.00000 0
239.50000 0.00000 0
241.00000 0.00000 0
242.50000 0.00000 0
244.00000 0.00000 0
245.50000 0.00000 0
247.00000 0.00000 0
248.50000 0.00000 0
249.62500 0.00000 0
250.00302 0.62228 0
250.00786 2.49364 0
250.01288 4.99045 0
250.01717 7.48804 0
250.02101 9.98607 0
250.02455 12.48439 0
250.02786 14.98294 0
250.03097 17.48165 0
250.03391 19.98051 0
250.03671 22.47948 0
250.03939 24.97855 0
250.04196 27.47770 0
250.04442 29.97693 0
250.04680 32.47622 0
250.04908 34.97556 0
250.05129 37.47496 0
250.05341 39.97440 0
250.05547 42.47388 0
250.05746 44.97340 0
250.05939 47.47296 0
250.06126 49.97254 0
250.06307 52.47214 0
250.06482 54.97178 0
250.06653 57.47143 0
250.06818 59.97110 0
250.06978 62.47079 0
250.07133 64.97050 0
250.07284 67.47022 0
250.07431 69.96996 0
250.07573 72.46970 0
250.07712 74.96946 0
250.07846 77.46922 0
250.07977 79.96899 0
250.08104 82.46877 0
250.08227 84.96855 0
250.08347 87.46834 0
250.08463 89.96813 0
250.08577 92.46793 0
250.08687 94.96772 0
250.08794 97.46752 0
250.08898 99.96732 0
250.09000 102.46712 0
250.09099 104.96691 0
250.09195 107.46671 0
250.09288 109.96650 0
250.09379 112.46629 0
250.09468 114.96608 0
250.09555 117.46586 0
250.09639 119.96564 0
250.09721 122.46542 0
250.09801 124.96519 0
250.09880 127.46495 0
250.09956 129.96471 0
250.10031 132.46447 0
250.10104 134.96422 0
250.10175 137.46396 0
250.10245 139.96369 0
250.10314 142.46342 0
250.10381 144.96315 0
250.10447 147.46286 0
250.10511 149.96257 0
250.10574 152.46227 0
250.10637 154.96197 0
250.10698 157.46166 0
250.10758 159.96134 0
250.10818 162.46101 0
250.10876 164.96067 0
250.10934 167.46033 0
250.10991 169.95998 0
250.11048 172.45962 0
250.11104 174.95926 0
250.11159 177.45888 0
250.11214 179.95851 0
250.11269 182.45812 0
250.11323 184.95772 0
250.11377 187.45732 0
250.11431 189.95692 0
250.11484 192.45650 0
250.11538 194.95608 0
250.11591 197.45565 0
250.11645 199.95522 0
250.11698 202.45478 0
250.11752 204.95433 0
250.11805 207.45388 0
250.11859 209.95343 0
250.11913 212.45297 0
250.11967 214.95250 0
250.12021 217.45203 0
250.12076 219.95156 0
250.12131 222.45108 0
250.12186 224.95060 0
250.12242 227.45012 0
250.12298 229.94963 0
250.12354 232.44914 0
250.12411 234.94865 0
250.12468 237.44816 0
250.12525 239.94767 0
250.12583 242.44718 0
250.12640 244.94670 0
250.12698 247.44621 0
250.12741 249.32084 0
249.50227 249.94586 0
247.62642 249.94630 0
245.12528 249.94687 0
242.62415 249.94745 0
240.12301 249.94803 0
237.62187 249.94861 0
235.12074 249.94920 0
232.61960 249.94978 0
230.11846 249.95037 0
227.61732 249.95097 0
225.11618 249.95156 0
222.61504 249.95217 0
220.11389 249.95277 0
217.61274 249.95338 0
215.11158 249.95398 0
212.61043 249.95460 0
210.10926 249.95521 0
207.60809 249.95582 0
205.10692 249.95644 0
202.60574 249.95706 0
200.10456 249.95768 0
197.60337 249.95829 0
195.10218 249.95891 0
192.60098 249.95953 0
190.09977 249.96014 0
187.59856 249.96076 0
185.09735 249.96137 0
182.59613 249.96198 0
180.09490 249.96258 0
177.59367 249.96319 0
175.09243 249.96379 0
172.59118 249.96438 0
170.08993 249.96497 0
167.58868 249.96556 0
165.08742 249.96614 0
162.58615 249.96672 0
160.08488 249.96729 0
157.58361 249.96785 0
155.08233 249.96841 0
152.58105 249.96896 0
150.07976 249.96950 0
147.57847 249.97004 0
145.07717 249.97056 0
142.57587 249.97108 0
140.07456 249.97160 0
137.57326 249.97210 0
135.07195 249.97260 0
132.57063 249.97308 0
130.06932 249.97356 0
127.56800 249.97403 0
125.06668 249.97449 0
122.56536 249.97495 0
120.06404 249.97539 0
117.56271 249.97582 0
115.06139 249.97625 0
112.56006 249.97667 0
110.05873 249.97707 0
107.55741 249.97747 0
105.05608 249.97786 0
102.55475 249.97825 0
100.05343 249.97862 0
97.55211 249.97899 0
95.05078 249.97934 0
92.54946 249.97969 0
90.04814 249.98004 0
87.54683 249.98038 0
85.04551 249.98071 0
82.54420 249.98103 0
80.04290 249.98135 0
77.54159 249.98167 0
75.04029 249.98198 0
72.53900 249.98229 0
70.03771 249.98259 0
67.53642 249.98290 0
65.03514 249.98320 0
62.53386 249.98350 0
60.03259 249.98381 0
57.53132 249.98412 0
55.03006 249.98443 0
52.52881 249.98475 0
50.02756 249.98508 0
47.52631 249.98541 0
45.02507 249.98575 0
42.52383 249.98611 0
40.02260 249.98648 0
37.52137 249.98687 0
35.02014 249.98729 0
32.51892 249.98772 0
30.01769 249.98818 0
27.51647 249.98867 0
25.01524 249.98920 0
22.51400 249.98978 0
20.01276 249.99040 0
17.51150 249.99107 0
15.01022 249.99182 0
12.50891 249.99265 0
10.00755 249.99358 0
7.50612 249.99465 0
5.00458 249.99590 0
2.50280 249.99744 0
0.62607 249.99901 0
0.00000 249.62500 0
0.00000 248.50000 0
0.00000 247.00000 0
0.00000 245.50000 0
0.00000 244.00000 0
0.00000 242.50000 0
0.00000 241.00000 0
0.00000 239.50000 0
0.00000 238.00000 0
0.00000 236.50000 0
0.00000 235.00000 0
0.00000 233.50000 0
0.00000 232.00000 0
0.00000 230.50000 0
0.00000 229.00000 0
0.00000 227.50000 0
0.00000 226.00000 0
0.00000 224.50000 0
0.00000 223.00000 0
0.00000 221.50000 0
0.00000 220.00000 0
0.00000 218.50000 0
0.00000 217.00000 0
0.00000 215.50000 0
0.00000 214.00000 0
0.00000 212.50000 0
0.00000 211.00000 0
0.00000 209.50000 0
0.00000 208.00000 0
0.00000 206.50000 0
0.00000 205.00000 0
0.00000 203.50000 0
0.00000 202.00000 0
0.00000 200.50000 0
0.00000 199.00000 0
0.00000 197.50000 0
0.00000 196.00000 0
0.00000 194.50000 0
0.00000 193.00000 0
0.00000 191.50000 0
0.00000 190.00000 0
0.00000 188.50000 0
0.00000 187.00000 0
0.00000 185.50000 0
0.00000 184.00000 0
0.00000 182.50000 0
0.00000 181.00000 0
0.00000 179.50000 0
0.00000 178.00000 0
0.00000 176.50000 0
0.00000 175.00000 0
0.00000 173.50000 0
0.00000 172.00000 0
0.00000 170.50000 0
0.00000 169.00000 0
0.00000 167.50000 0
0.00000 166.00000 0
0.00000 164.50000 0
0.00000 163.00000 0
0.00000 161.50000 0
0.00000 160.00000 0
0.00000 158.50000 0
0.00000 157.00000 0
0.00000 155.50000 0
0.00000 154.00000 0
0.00000 152.50000 0
0.00000 151.00000 0
0.00000 149.50000 0
0.00000 148.00000 0
0.00000 146.50000 0
0.00000 145.00000 0
0.00000 143.50000 0
0.00000 142.00000 0
0.00000 140.50000 0
0.00000 139.00000 0
0.00000 137.50000 0
0.00000 136.00000 0
0.00000 134.50000 0
0.00000 133.00000 0
0.00000 131.50000 0
0.00000 130.00000 0
0.00000 128.50000 0
0.00000 127.00000 0
0.00000 125.50000 0
0.00000 124.00000 0
0.00000 122.50000 0
0.00000 121.00000 0
0.00000 119.50000 0
0.00000 118.00000 0
0.00000 116.50000 0
0.00000 115.00000 0
0.00000 113.50000 0
0.00000 112.00000 0
0.00000 110.50000 0
0.00000 109.00000 0
0.00000 107.50000 0
0.00000 106.00000 0
0.00000 104.50000 0
0.00000 103.00000 0
0.00000 101.50000 0
0.00000 100.37500 0
0.25249 99.75025 0
1.00496 99.00084 0
2.00719 98.00157 0
3.00894 97.00224 0
4.01041 96.00286 0
5.01170 95.00345 0
6.01285 94.00401 0
7.01389 93.00455 0
8.01484 92.00506 0
9.01572 91.00555 0
10.01654 90.00603 0
11.01729 89.00649 0
12.01800 88.00693 0
13.01866 87.00736 0
14.01929 86.00778 0
15.01987 85.00818 0
16.02041 84.00858 0
17.02093 83.00896 0
18.02141 82.00933 0
19.02187 81.00969 0
20.02229 80.01004 0
21.02269 79.01039 0
22.02307 78.01072 0
23.02342 77.01104 0
24.02375 76.01136 0
25.02406 75.01167 0
26.02434 74.01196 0
27.02461 73.01225 0
28.02485 72.01254 0
29.02508 71.01281 0
30.02528 70.01308 0
31.02547 69.01334 0
32.02564 68.01359 0
33.02580 67.01383 0
34.02593 66.01407 0
35.02605 65.01430 0
36.02615 64.01452 0
37.02624 63.01474 0
38.02631 62.01494 0
39.02636 61.01515 0
40.02640 60.01534 0
41.02642 59.01552 0
42.02643 58.01570 0
43.02642 57.01587 0
44.02640 56.01604 0
45.02636 55.01620 0
46.02631 54.01635 0
47.02624 53.01649 0
48.02616 52.01662 0
49.02607 51.01675 0
50.02596 50.01687 0
51.02583 49.01698 0
52.02570 48.01708 0
53.02555 47.01718 0
54.02538 46.01727 0
55.02520 45.01734 0
56.02501 44.01742 0
57.02480 43.01748 0
58.02458 42.01753 0
59.02434 41.01758 0
60.02409 40.01761 0
61.02383 39.01764 0
62.02355 38.01765 0
63.02326 37.01766 0
64.02295 36.01766 0
65.02263 35.01765 0
66.02230 34.01762 0
67.02195 33.01759 0
68.02159 32.01754 0
69.02121 31.01748 0
70.02082 30.01741 0
71.02042 29.01733 0
72.02000 28.01724 0
73.01956 27.01713 0
74.01911 26.01701 0
75.01865 25.01687 0
76.01817 24.01672 0
77.01767 23.01655 0
78.01716 22.01637 0
79.01663 21.01617 0
80.01609 20.01595 0
81.01553 19.01571 0
82.01495 18.01545 0
83.01435 17.01517 0
84.01374 16.01486 0
85.01311 15.01453 0
86.01246 14.01418 0
87.01179 13.01379 0
88.01110 12.01337 0
89.01039 11.01291 0
90.00965 10.01242 0
91.00889 9.01188 0
92.00810 8.01129 0
93.00729 7.01063 0
94.00644 6.00991 0
95.00555 5.00910 0
96.00462 4.00817 0
97.00364 3.00709 0
98.00259 2.00579 0
99.00143 1.00407 0
99.75045 0.25210 0
100.03569 100.00888 0
100.04309 174.99512 0
175.05831 99.99301 0
175.07751 174.97922 0
      </DataArray>
    </Points>
    <Cells>
      <DataArray type="Int32" Name="connectivity" format="ascii">
0 1
1 2
2 3
3 4
4 5
5 6
6 7
7 8
8 9
9 10
10 11
11 12
12 13
13 14
14 15
15 16
16 17
17 18
18 19
19 20
20 21
21 22
22 23
23 24
24 25
25 26
26 27
27 28
28 29
29 30
30 31
31 32
32 33
33 34
34 35
35 36
36 37
37 38
38 39
39 40
40 41
41 42
42 43
43 44
44 45
45 46
46 47
47 48
48 49
49 50
50 51
51 52
52 53
53 54
54 55
55 56
56 57
57 58
58 59
59 60
60 61
61 62
62 63
63 64
64 65
65 66
66 67
67 68
68 69
69 70
70 71
71 72
72 73
73 74
74 75
75 76
76 77
77 78
78 79
79 80
80 81
81 82
82 83
83 84
84 85
85 86
86 87
87 88
88 89
89 90
90 91
91 92
92 93
93 94
94 95
95 96
96 97
97 98
98 99
99 100
101 102
102 103
103 104
104 105
105 106
106 107
107 108
108 109
109 110
110 111
111 112
112 113
113 114
114 115
115 116
116 117
117 118
118 119
119 120
120 121
121 122
122 123
123 124
124 125
125 126
126 127
127 128
128 129
129 130
130 131
131 132
132 133
133 134
134 135
135 136
136 137
137 138
138 139
139 140
140 141
141 142
142 143
143 144
144 145
145 146
146 147
147 148
148 149
149 150
150 151
151 152
152 153
153 154
154 155
155 156
156 157
157 158
158 159
159 160
160 161
161 162
162 163
163 164
164 165
165 166
166 167
167 168
168 169
169 170
170 171
171 172
172 173
173 174
174 175
175 176
176 177
177 178
178 179
179 180
180 181
181 182
182 183
183 184
184 185
185 186
186 187
187 188
188 189
189 190
190 191
191 192
192 193
193 194
194 195
195 196
196 197
197 198
198 199
199 200
200 201
202 203
203 204
204 205
205 206
206 207
207 208
208 209
209 210
210 211
211 212
212 213
213 214
214 215
215 216
216 217
217 218
218 219
219 220
220 221
221 222
222 223
223 224
224 225
225 226
226 227
227 228
228 229
229 230
230 231
231 232
232 233
233 234
234 235
235 236
236 237
237 238
238 239
239 240
240 241
241 242
242 243
243 244
244 245
245 246
246 247
247 248
248 249
249 250
250 251
251 252
252 253
253 254
254 255
255 256
256 257
257 258
258 259
259 260
260 261
261 262
262 263
263 264
264 265
265 266
266 267
267 268
268 269
269 270
270 271
271 272
272 273
273 274
274 275
275 276
276 277
277 278
278 279
279 280
280 281
281 282
282 283
283 284
284 285
285 286
286 287
287 288
288 289
289 290
290 291
291 292
292 293
293 294
294 295
295 296
296 297
297 298
298 299
299 300
300 301
301 302
303 304
304 305
305 306
306 307
307 308
308 309
309 310
310 311
311 312
312 313
313 314
314 315
315 316
316 317
317 318
318 319
319 320
320 321
321 322
322 323
323 324
324 325
325 326
326 327
327 328
328 329
329 330
330 331
331 332
332 333
333 334
334 335
335 336
336 337
337 338
338 339
339 340
340 341
341 342
342 343
343 344
344 345
345 346
346 347
347 348
348 349
349 350
350 351
351 352
352 353
353 354
354 355
355 356
356 357
357 358
358 359
359 360
360 361
361 362
362 363
363 364
364 365
365 366
366 367
367 368
368 369
369 370
370 371
371 372
372 373
373 374
374 375
375 376
376 377
377 378
378 379
379 380
380 381
381 382
382 383
383 384
384 385
385 386
386 387
387 388
388 389
389 390
390 391
391 392
392 393
393 394
394 395
395 396
396 397
397 398
398 399
399 400
400 401
401 402
402 403
404 405
405 406
406 407
407 408
408 409
409 410
410 411
411 412
412 413
413 414
414 415
415 416
416 417
417 418
418 419
419 420
420 421
421 422
422 423
423 424
424 425
425 426
426 427
427 428
428 429
429 430
430 431
431 432
432 433
433 434
434 435
435 436
436 437
437 438
438 439
439 440
440 441
441 442
442 443
443 444
444 445
445 446
446 447
447 448
448 449
449 450
450 451
451 452
452 453
453 454
454 455
455 456
456 457
457 458
458 459
459 460
460 461
461 462
462 463
463 464
464 465
465 466
466 467
467 468
468 469
469 470
470 471
471 472
472 473
473 474
474 475
475 476
476 477
477 478
478 479
479 480
480 481
481 482
482 483
483 484
484 485
485 486
486 487
487 488
488 489
489 490
490 491
491 492
492 493
493 494
494 495
495 496
496 497
497 498
498 499
499 500
500 501
501 502
502 503
503 504
505
506
507
508
      </DataArray>
      <DataArray type="Int32" Name="offsets" format="ascii">
2
4
6
8
10
12
14
16
18
20
22
24
26
28
30
32
34
36
38
40
42
44
46
48
50
52
54
56
58
60
62
64
66
68
70
72
74
76
78
80
82
84
86
88
90
92
94
96
98
100
102
104
106
108
110
112
114
116
118
120
122
124
126
128
130
132
134
136
138
140
142
144
146
148
150
152
154
156
158
160
162
164
166
168
170
172
174
176
178
180
182
184
186
188
190
192
194
196
198
200
202
204
206
208
210
212
214
216
218
220
222
224
226
228
230
232
234
236
238
240
242
244
246
248
250
252
254
256
258
260
262
264
266
268
270
272
274
276
278
280
282
284
286
288
290
292
294
296
298
300
302
304
306
308
310
312
314
316
318
320
322
324
326
328
330
332
334
336
338
340
342
344
346
348
350
352
354
356
358
360
362
364
366
368
370
372
374
376
378
380
382
384
386
388
390
392
394
396
398
400
402
404
406
408
410
412
414
416
418
420
422
424
426
428
430
432
434
436
438
440
442
444
446
448
450
452
454
456
458
460
462
464
466
468
470
472
474
476
478
480
482
484
486
488
490
492
494
496
498
500
502
504
506
508
510
512
514
516
518
520
522
524
526
528
530
532
534
536
538
540
542
544
546
548
550
552
554
556
558
560
562
564
566
568
570
572
574
576
578
580
582
584
586
588
590
592
594
596
598
600
602
604
606
608
610
612
614
616
618
620
622
624
626
628
630
632
634
636
638
640
642
644
646
648
650
652
654
656
658
660
662
664
666
668
670
672
674
676
678
680
682
684
686
688
690
692
694
696
698
700
702
704
706
708
710
712
714
716
718
720
722
724
726
728
730
732
734
736
738
740
742
744
746
748
750
752
754
756
758
760
762
764
766
768
770
772
774
776
778
780
782
784
786
788
790
792
794
796
798
800
802
804
806
808
810
812
814
816
818
820
822
824
826
828
830
832
834
836
838
840
842
844
846
848
850
852
854
856
858
860
862
864
866
868
870
872
874
876
878
880
882
884
886
888
890
892
894
896
898
900
902
904
906
908
910
912
914
916
918
920
922
924
926
928
930
932
934
936
938
940
942
944
946
948
950
952
954
956
958
960
962
964
966
968
970
972
974
976
978
980
982
984
986
988
990
992
994
996
998
1000
1001
1002
1003
1004
      </DataArray>
      <DataArray type="UInt8" Name="types" format="ascii">
68
68
68
68
68
68
68
68
68
68
68
68
68
68
68
68
68
68
68
68
68
68
68
68
68
68
68
68
68
68
68
68
68
68
68
68
68
68
68
68
68
68
68
68
68
68
68
68
68
68
68
68
68
68
68
68
68
68
68
68
68
68
68
68
68
68
68
68
68
68
68
68
68
68
68
68
68
68
68
68
68
68
68
68
68
68
68
68
68
68
68
68
68
68
68
68
68
68
68
68
68
68
68
68
68
68
68
68
68
68
68
68
68
68
68
68
68
68
68
68
68
68
68
68
68
68
68
68
68
68
68
68
68
68
68
68
68
68
68
68
68
68
68
68
68
68
68
68
68
68
68
68
68
68
68
68
68
68
68
68
68
68
68
68
68
68
68
68
68
68
68
68
68
68
68
68
68
68
68
68
68
68
68
68
68
68
68
68
68
68
68
68
68
68
68
68
68
68
68
68
68
68
68
68
68
68
68
68
68
68
68
68
68
68
68
68
68
68
68
68
68
68
68
68
68
68
68
68
68
68
68
68
68
68
68
68
68
68
68
68
68
68
68
68
68
68
68
68
68
68
68
68
68
68
68
68
68
68
68
68
68
68
68
68
68
68
68
68
68
68
68
68
68
68
68
68
68
68
68
68
68
68
68
68
68
68
68
68
68
68
68
68
68
68
68
68
68
68
68
68
68
68
68
68
68
68
68
68
68
68
68
68
68
68
68
68
68
68
68
68
68
68
68
68
68
68
68
68
68
68
68
68
68
68
68
68
68
68
68
68
68
68
68
68
68
68
68
68
68
68
68
68
68
68
68
68
68
68
68
68
68
68
68
68
68
68
68
68
68
68
68
68
68
68
68
68
68
68
68
68
68
68
68
68
68
68
68
68
68
68
68
68
68
68
68
68
68
68
68
68
68
68
68
68
68
68
68
68
68
68
68
68
68
68
68
68
68
68
68
68
68
68
68
68
68
68
68
68
68
68
68
68
68
68
68
68
68
68
68
68
68
68
68
68
68
68
68
68
68
68
68
68
68
68
68
68
68
68
68
68
68
68
68
68
68
68
68
68
68
68
68
68
68
68
68
68
68
68
68
68
68
68
68
68
68
68
68
68
68
68
68
68
68
68
68
68
68
68
68
68
1
1
1
1
      </DataArray>
    </Cells>
    <PointData>
      <DataArray type="Float64" NumberOfComponents="2" Name="Displacements" format="ascii">
0.00000 0.00000
0.00000 0.00000
0.00000 0.00000
0.00000 0.00000
0.00000 0.00000
0.00000 0.00000
0.00000 0.00000
0.00000 0.00000
0.00000 0.00000
0.00000 0.00000
0.00000 0.00000
0.00000 0.00000
0.00000 0.00000
0.00000 0.00000
0.00000 0.00000
0.00000 0.00000
0.00000 0.00000
0.00000 0.00000
0.00000 0.00000
0.00000 0.00000
0.00000 0.00000
0.00000 0.00000
0.00000 0.00000
0.00000 0.00000
0.00000 0.00000
0.00000 0.00000
0.00000 0.00000
0.00000 0.00000
0.00000 0.00000
0.00000 0.00000
0.00000 0.00000
0.00000 0.00000
0.00000 0.00000
0.00000 0.00000
0.00000 0.00000
0.00000 0.00000
0.00000 0.00000
0.00000 0.00000
0.00000 0.00000
0.00000 0.00000
0.00000 0.00000
0.00000 0.00000
0.00000 0.00000
0.00000 0.00000
0.00000 0.00000
0.00000 0.00000
0.00000 0.00000
0.00000 0.00000
0.00000 0.00000
0.00000 0.00000
0.00000 0.00000
0.00000 0.00000
0.00000 0.00000
0.00000 0.00000
0.00000 0.00000
0.00000 0.00000
0.00000 0.00000
0.00000 0.00000
0.00000 0.00000
0.00000 0.00000
0.00000 0.00000
0.00000 0.00000
0.00000 0.00000
0.00000 0.00000
0.00000 0.00000
0.00000 0.00000
0.00000 0.00000
0.00000 0.00000
0.00000 0.00000
0.00000 0.00000
0.00000 0.00000
0.00000 0.00000
0.00000 0.00000
0.00000 0.00000
0.00000 0.00000
0.00000 0.00000
0.00000 0.00000
0.00000 0.00000
0.00000 0.00000
0.00000 0.00000
0.00000 0.00000
0.00000 0.00000
0.00000 0.00000
0.00000 0.00000
0.00000 0.00000
0.00000 0.00000
0.00000 0.00000
0.00000 0.00000
0.00000 0.00000
0.00000 0.00000
0.00000 0.00000
0.00000 0.00000
0.00000 0.00000
0.00000 0.00000
0.00000 0.00000
0.00000 0.00000
0.00000 0.00000
0.00000 0.00000
0.00000 0.00000
0.00000 0.00000
0.00000 0.00000
0.00302 -0.00272
0.00786 -0.00636
0.01288 -0.00955
0.01717 -0.01196
0.02101 -0.01393
0.02455 -0.01561
0.02786 -0.01706
0.03097 -0.01835
0.03391 -0.01949
0.03671 -0.02052
0.03939 -0.02145
0.04196 -0.02230
0.04442 -0.02307
0.04680 -0.02378
0.04908 -0.02444
0.05129 -0.02504
0.05341 -0.02560
0.05547 -0.02612
0.05746 -0.02660
0.05939 -0.02704
0.06126 -0.02746
0.06307 -0.02786
0.06482 -0.02822
0.06653 -0.02857
0.06818 -0.02890
0.06978 -0.02921
0.07133 -0.02950
0.07284 -0.02978
0.07431 -0.03004
0.07573 -0.03030
0.07712 -0.03054
0.07846 -0.03078
0.07977 -0.03101
0.08104 -0.03123
0.08227 -0.03145
0.08347 -0.03166
0.08463 -0.03187
0.08577 -0.03207
0.08687 -0.03228
0.08794 -0.03248
0.08898 -0.03268
0.09000 -0.03288
0.09099 -0.03309
0.09195 -0.03329
0.09288 -0.03350
0.09379 -0.03371
0.09468 -0.03392
0.09555 -0.03414
0.09639 -0.03436
0.09721 -0.03458
0.09801 -0.03481
0.09880 -0.03505
0.09956 -0.03529
0.10031 -0.03553
0.10104 -0.03578
0.10175 -0.03604
0.10245 -0.03631
0.10314 -0.03658
0.10381 -0.03685
0.10447 -0.03714
0.10511 -0.03743
0.10574 -0.03773
0.10637 -0.03803
0.10698 -0.03834
0.10758 -0.03866
0.10818 -0.03899
0.10876 -0.03933
0.10934 -0.03967
0.10991 -0.04002
0.11048 -0.04038
0.11104 -0.04074
0.11159 -0.04112
0.11214 -0.04149
0.11269 -0.04188
0.11323 -0.04228
0.11377 -0.04268
0.11431 -0.04308
0.11484 -0.04350
0.11538 -0.04392
0.11591 -0.04435
0.11645 -0.04478
0.11698 -0.04522
0.11752 -0.04567
0.11805 -0.04612
0.11859 -0.04657
0.11913 -0.04703
0.11967 -0.04750
0.12021 -0.04797
0.12076 -0.04844
0.12131 -0.04892
0.12186 -0.04940
0.12242 -0.04988
0.12298 -0.05037
0.12354 -0.05086
0.12411 -0.05135
0.12468 -0.05184
0.12525 -0.05233
0.12583 -0.05282
0.12640 -0.05330
0.12698 -0.05379
0.12741 -0.05416
0.12727 -0.05414
0.12642 -0.05370
0.12528 -0.05313
0.12415 -0.05255
0.12301 -0.05197
0.12187 -0.05139
0.12074 -0.05080
0.11960 -0.05022
0.11846 -0.04963
0.11732 -0.04903
0.11618 -0.04844
0.11504 -0.04783
0.11389 -0.04723
0.11274 -0.04662
0.11158 -0.04602
0.11043 -0.04540
0.10926 -0.04479
0.10809 -0.04418
0.10692 -0.04356
0.10574 -0.04294
0.10456 -0.04232
0.10337 -0.04171
0.10218 -0.04109
0.10098 -0.04047
0.09977 -0.03986
0.09856 -0.03924
0.09735 -0.03863
0.09613 -0.03802
0.09490 -0.03742
0.09367 -0.03681
0.09243 -0.03621
0.09118 -0.03562
0.08993 -0.03503
0.08868 -0.03444
0.08742 -0.03386
0.08615 -0.03328
0.08488 -0.03271
0.08361 -0.03215
0.08233 -0.03159
0.08105 -0.03104
0.07976 -0.03050
0.07847 -0.02996
0.07717 -0.02944
0.07587 -0.02892
0.07456 -0.02840
0.07326 -0.02790
0.07195 -0.02740
0.07063 -0.02692
0.06932 -0.02644
0.06800 -0.02597
0.06668 -0.02551
0.06536 -0.02505
0.06404 -0.02461
0.06271 -0.02418
0.06139 -0.02375
0.06006 -0.02333
0.05873 -0.02293
0.05741 -0.02253
0.05608 -0.02214
0.05475 -0.02175
0.05343 -0.02138
0.05211 -0.02101
0.05078 -0.02066
0.04946 -0.02031
0.04814 -0.01996
0.04683 -0.01962
0.04551 -0.01929
0.04420 -0.01897
0.04290 -0.01865
0.04159 -0.01833
0.04029 -0.01802
0.03900 -0.01771
0.03771 -0.01741
0.03642 -0.01710
0.03514 -0.01680
0.03386 -0.01650
0.03259 -0.01619
0.03132 -0.01588
0.03006 -0.01557
0.02881 -0.01525
0.02756 -0.01492
0.02631 -0.01459
0.02507 -0.01425
0.02383 -0.01389
0.02260 -0.01352
0.02137 -0.01313
0.02014 -0.01271
0.01892 -0.01228
0.01769 -0.01182
0.01647 -0.01133
0.01524 -0.01080
0.01400 -0.01022
0.01276 -0.00960
0.01150 -0.00893
0.01022 -0.00818
0.00891 -0.00735
0.00755 -0.00642
0.00612 -0.00535
0.00458 -0.00410
0.00280 -0.00256
0.00107 -0.00099
0.00000 0.00000
0.00000 0.00000
0.00000 0.00000
0.00000 0.00000
0.00000 0.00000
0.00000 0.00000
0.00000 0.00000
0.00000 0.00000
0.00000 0.00000
0.00000 0.00000
0.00000 0.00000
0.00000 0.00000
0.00000 0.00000
0.00000 0.00000
0.00000 0.00000
0.00000 0.00000
0.00000 0.00000
0.00000 0.00000
0.00000 0.00000
0.00000 0.00000
0.00000 0.00000
0.00000 0.00000
0.00000 0.00000
0.00000 0.00000
0.00000 0.00000
0.00000 0.00000
0.00000 0.00000
0.00000 0.00000
0.00000 0.00000
0.00000 0.00000
0.00000 0.00000
0.00000 0.00000
0.00000 0.00000
0.00000 0.00000
0.00000 0.00000
0.00000 0.00000
0.00000 0.00000
0.00000 0.00000
0.00000 0.00000
0.00000 0.00000
0.00000 0.00000
0.00000 0.00000
0.00000 0.00000
0.00000 0.00000
0.00000 0.00000
0.00000 0.00000
0.00000 0.00000
0.00000 0.00000
0.00000 0.00000
0.00000 0.00000
0.00000 0.00000
0.00000 0.00000
0.00000 0.00000
0.00000 0.00000
0.00000 0.00000
0.00000 0.00000
0.00000 0.00000
0.00000 0.00000
0.00000 0.00000
0.00000 0.00000
0.00000 0.00000
0.00000 0.00000
0.00000 0.00000
0.00000 0.00000
0.00000 0.00000
0.00000 0.00000
0.00000 0.00000
0.00000 0.00000
0.00000 0.00000
0.00000 0.00000
0.00000 0.00000
0.00000 0.00000
0.00000 0.00000
0.00000 0.00000
0.00000 0.00000
0.00000 0.00000
0.00000 0.00000
0.00000 0.00000
0.00000 0.00000
0.00000 0.00000
0.00000 0.00000
0.00000 0.00000
0.00000 0.00000
0.00000 0.00000
0.00000 0.00000
0.00000 0.00000
0.00000 0.00000
0.00000 0.00000
0.00000 0.00000
0.00000 0.00000
0.00000 0.00000
0.00000 0.00000
0.00000 0.00000
0.00000 0.00000
0.00000 0.00000
0.00000 0.00000
0.00000 0.00000
0.00000 0.00000
0.00000 0.00000
0.00000 0.00000
0.00000 0.00000
0.00249 0.00025
0.00496 0.00084
0.00719 0.00157
0.00894 0.00224
0.01041 0.00286
0.01170 0.00345
0.01285 0.00401
0.01389 0.00455
0.01484 0.00506
0.01572 0.00555
0.01654 0.00603
0.01729 0.00649
0.01800 0.00693
0.01866 0.00736
0.01929 0.00778
0.01987 0.00818
0.02041 0.00858
0.02093 0.00896
0.02141 0.00933
0.02187 0.00969
0.02229 0.01004
0.02269 0.01039
0.02307 0.01072
0.02342 0.01104
0.02375 0.01136
0.02406 0.01167
0.02434 0.01196
0.02461 0.01225
0.02485 0.01254
0.02508 0.01281
0.02528 0.01308
0.02547 0.01334
0.02564 0.01359
0.02580 0.01383
0.02593 0.01407
0.02605 0.01430
0.02615 0.01452
0.02624 0.01474
0.02631 0.01494
0.02636 0.01515
0.02640 0.01534
0.02642 0.01552
0.02643 0.01570
0.02642 0.01587
0.02640 0.01604
0.02636 0.01620
0.02631 0.01635
0.02624 0.01649
0.02616 0.01662
0.02607 0.01675
0.02596 0.01687
0.02583 0.01698
0.02570 0.01708
0.02555 0.01718
0.02538 0.01727
0.02520 0.01734
0.02501 0.01742
0.02480 0.01748
0.02458 0.01753
0.02434 0.01758
0.02409 0.01761
0.02383 0.01764
0.02355 0.01765
0.02326 0.01766
0.02295 0.01766
0.02263 0.01765
0.02230 0.01762
0.02195 0.01759
0.02159 0.01754
0.02121 0.01748
0.02082 0.01741
0.02042 0.01733
0.02000 0.01724
0.01956 0.01713
0.01911 0.01701
0.01865 0.01687
0.01817 0.01672
0.01767 0.01655
0.01716 0.01637
0.01663 0.01617
0.01609 0.01595
0.01553 0.01571
0.01495 0.01545
0.01435 0.01517
0.01374 0.01486
0.01311 0.01453
0.01246 0.01418
0.01179 0.01379
0.01110 0.01337
0.01039 0.01291
0.00965 0.01242
0.00889 0.01188
0.00810 0.01129
0.00729 0.01063
0.00644 0.00991
0.00555 0.00910
0.00462 0.00817
0.00364 0.00709
0.00259 0.00579
0.00143 0.00407
0.00045 0.00210
0.03569 0.00888
0.04309 -0.00488
0.05831 -0.00699
0.07751 -0.02078
      </DataArray>
      <DataArray type="Float64" NumberOfComponents="4" Name="Stress" format="ascii">
0 0 0 0
0 0 0 0
0 0 0 0
0 0 0 0
0 0 0 0
0 0 0 0
0 0 0 0
0 0 0 0
0 0 0 0
0 0 0 0
0 0 0 0
0 0 0 0
0 0 0 0
0 0 0 0
0 0 0 0
0 0 0 0
0 0 0 0
0 0 0 0
0 0 0 0
0 0 0 0
0 0 0 0
0 0 0 0
0 0 0 0
0 0 0 0
0 0 0 0
0 0 0 0
0 0 0 0
0 0 0 0
0 0 0 0
0 0 0 0
0 0 0 0
0 0 0 0
0 0 0 0
0 0 0 0
0 0 0 0
0 0 0 0
0 0 0 0
0 0 0 0
0 0 0 0
0 0 0 0
0 0 0 0
0 0 0 0
0 0 0 0
0 0 0 0
0 0 0 0
0 0 0 0
0 0 0 0
0 0 0 0
0 0 0 0
0 0 0 0
0 0 0 0
0 0 0 0
0 0 0 0
0 0 0 0
0 0 0 0
0 0 0 0
0 0 0 0
0 0 0 0
0 0 0 0
0 0 0 0
0 0 0 0
0 0 0 0
0 0 0 0
0 0 0 0
0 0 0 0
0 0 0 0
0 0 0 0
0 0 0 0
0 0 0 0
0 0 0 0
0 0 0 0
0 0 0 0
0 0 0 0
0 0 0 0
0 0 0 0
0 0 0 0
0 0 0 0
0 0 0 0
0 0 0 0
0 0 0 0
0 0 0 0
0 0 0 0
0 0 0 0
0 0 0 0
0 0 0 0
0 0 0 0
0 0 0 0
0 0 0 0
0 0 0 0
0 0 0 0
0 0 0 0
0 0 0 0
0 0 0 0
0 0 0 0
0 0 0 0
0 0 0 0
0 0 0 0
0 0 0 0
0 0 0 0
0 0 0 0
0 0 0 0
0 0 0 0
0 0 0 0
0 0 0 0
0 0 0 0
0 0 0 0
0 0 0 0
0 0 0 0
0 0 0 0
0 0 0 0
0 0 0 0
0 0 0 0
0 0 0 0
0 0 0 0
0 0 0 0
0 0 0 0
0 0 0 0
0 0 0 0
0 0 0 0
0 0 0 0
0 0 0 0
0 0 0 0
0 0 0 0
0 0 0 0
0 0 0 0
0 0 0 0
0 0 0 0
0 0 0 0
0 0 0 0
0 0 0 0
0 0 0 0
0 0 0 0
0 0 0 0
0 0 0 0
0 0 0 0
0 0 0 0
0 0 0 0
0 0 0 0
0 0 0 0
0 0 0 0
0 0 0 0
0 0 0 0
0 0 0 0
0 0 0 0
0 0 0 0
0 0 0 0
0 0 0 0
0 0 0 0
0 0 0 0
0 0 0 0
0 0 0 0
0 0 0 0
0 0 0 0
0 0 0 0
0 0 0 0
0 0 0 0
0 0 0 0
0 0 0 0
0 0 0 0
0 0 0 0
0 0 0 0
0 0 0 0
0 0 0 0
0 0 0 0
0 0 0 0
0 0 0 0
0 0 0 0
0 0 0 0
0 0 0 0
0 0 0 0
0 0 0 0
0 0 0 0
0 0 0 0
0 0 0 0
0 0 0 0
0 0 0 0
0 0 0 0
0 0 0 0
0 0 0 0
0 0 0 0
0 0 0 0
0 0 0 0
0 0 0 0
0 0 0 0
0 0 0 0
0 0 0 0
0 0 0 0
0 0 0 0
0 0 0 0
0 0 0 0
0 0 0 0
0 0 0 0
0 0 0 0
0 0 0 0
0 0 0 0
0 0 0 0
0 0 0 0
0 0 0 0
0 0 0 0
0 0 0 0
0 0 0 0
0 0 0 0
0 0 0 0
0 0 0 0
0 0 0 0
0 0 0 0
0 0 0 0
0 0 0 0
0 0 0 0
0 0 0 0
0 0 0 0
0 0 0 0
0 0 0 0
0 0 0 0
0 0 0 0
0 0 0 0
0 0 0 0
0 0 0 0
0 0 0 0
0 0 0 0
0 0 0 0
0 0 0 0
0 0 0 0
0 0 0 0
0 0 0 0
0 0 0 0
0 0 0 0
0 0 0 0
0 0 0 0
0 0 0 0
0 0 0 0
0 0 0 0
0 0 0 0
0 0 0 0
0 0 0 0
0 0 0 0
0 0 0 0
0 0 0 0
0 0 0 0
0 0 0 0
0 0 0 0
0 0 0 0
0 0 0 0
0 0 0 0
0 0 0 0
0 0 0 0
0 0 0 0
0 0 0 0
0 0 0 0
0 0 0 0
0 0 0 0
0 0 0 0
0 0 0 0
0 0 0 0
0 0 0 0
0 0 0 0
0 0 0 0
0 0 0 0
0 0 0 0
0 0 0 0
0 0 0 0
0 0 0 0
0 0 0 0
0 0 0 0
0 0 0 0
0 0 0 0
0 0 0 0
0 0 0 0
0 0 0 0
0 0 0 0
0 0 0 0
0 0 0 0
0 0 0 0
0 0 0 0
0 0 0 0
0 0 0 0
0 0 0 0
0 0 0 0
0 0 0 0
0 0 0 0
0 0 0 0
0 0 0 0
0 0 0 0
0 0 0 0
0 0 0 0
0 0 0 0
0 0 0 0
0 0 0 0
0 0 0 0
0 0 0 0
0 0 0 0
0 0 0 0
0 0 0 0
0 0 0 0
0 0 0 0
0 0 0 0
0 0 0 0
0 0 0 0
0 0 0 0
0 0 0 0
0 0 0 0
0 0 0 0
0 0 0 0
0 0 0 0
0 0 0 0
0 0 0 0
0 0 0 0
0 0 0 0
0 0 0 0
0 0 0 0
0 0 0 0
0 0 0 0
0 0 0 0
0 0 0 0
0 0 0 0
0 0 0 0
0 0 0 0
0 0 0 0
0 0 0 0
0 0 0 0
0 0 0 0
0 0 0 0
0 0 0 0
0 0 0 0
0 0 0 0
0 0 0 0
0 0 0 0
0 0 0 0
0 0 0 0
0 0 0 0
0 0 0 0
0 0 0 0
0 0 0 0
0 0 0 0
0 0 0 0
0 0 0 0
0 0 0 0
0 0 0 0
0 0 0 0
0 0 0 0
0 0 0 0
0 0 0 0
0 0 0 0
0 0 0 0
0 0 0 0
0 0 0 0
0 0 0 0
0 0 0 0
0 0 0 0
0 0 0 0
0 0 0 0
0 0 0 0
0 0 0 0
0 0 0 0
0 0 0 0
0 0 0 0
0 0 0 0
0 0 0 0
0 0 0 0
0 0 0 0
0 0 0 0
0 0 0 0
0 0 0 0
0 0 0 0
0 0 0 0
0 0 0 0
0 0 0 0
0 0 0 0
0 0 0 0
0 0 0 0
0 0 0 0
0 0 0 0
0 0 0 0
0 0 0 0
0 0 0 0
0 0 0 0
0 0 0 0
0 0 0 0
0 0 0 0
0 0 0 0
0 0 0 0
0 0 0 0
0 0 0 0
0 0 0 0
0 0 0 0
0 0 0 0
0 0 0 0
0 0 0 0
0 0 0 0
0 0 0 0
0 0 0 0
0 0 0 0
0 0 0 0
0 0 0 0
0 0 0 0
0 0 0 0
0 0 0 0
0 0 0 0
0 0 0 0
0 0 0 0
0 0 0 0
0 0 0 0
0 0 0 0
0 0 0 0
0 0 0 0
0 0 0 0
0 0 0 0
0 0 0 0
0 0 0 0
0 0 0 0
0 0 0 0
0 0 0 0
0 0 0 0
0 0 0 0
0 0 0 0
0 0 0 0
0 0 0 0
0 0 0 0
0 0 0 0
0 0 0 0
0 0 0 0
0 0 0 0
0 0 0 0
0 0 0 0
0 0 0 0
0 0 0 0
0 0 0 0
0 0 0 0
0 0 0 0
0 0 0 0
0 0 0 0
0 0 0 0
0 0 0 0
0 0 0 0
0 0 0 0
0 0 0 0
0 0 0 0
0 0 0 0
0 0 0 0
0 0 0 0
0 0 0 0
0 0 0 0
0 0 0 0
0 0 0 0
0 0 0 0
0 0 0 0
0 0 0 0
0 0 0 0
0 0 0 0
0 0 0 0
0 0 0 0
0 0 0 0
0 0 0 0
0 0 0 0
0 0 0 0
0 0 0 0
0 0 0 0
0 0 0 0
0 0 0 0
0 0 0 0
0 0 0 0
0 0 0 0
0 0 0 0
0 0 0 0
0 0 0 0
0 0 0 0
0 0 0 0
0 0 0 0
0 0 0 0
0 0 0 0
0 0 0 0
0 0 0 0
0 0 0 0
0 0 0 0
0 0 0 0
0 0 0 0
0 0 0 0
0 0 0 0
0 0 0 0
0 0 0 0
0 0 0 0
0 0 0 0
0 0 0 0
0 0 0 0
0 0 0 0
0 0 0 0
0 0 0 0
0 0 0 0
0 0 0 0
0 0 0 0
0 0 0 0
0 0 0 0
0 0 0 0
0 0 0 0
0 0 0 0
0 0 0 0
0 0 0 0
0 0 0 0
0 0 0 0
0 0 0 0
0 0 0 0
0 0 0 0
0 0 0 0
0 0 0 0
0 0 0 0
58.33904 -4.25602 -4.25602 -0.91928
100.45539 -2.57547 -2.57547 3.45677
78.58980 8.49443 8.49443 14.83806
99.51680 -5.56535 -5.56535 17.62976
      </DataArray>
    </PointData>
  </Piece>
  </UnstructuredGrid>
</VTKFile>