<?xml version="1.0"?>
<VTKFile type="UnstructuredGrid">
  <UnstructuredGrid>
  <Piece NumberOfPoints="100" NumberOfCells="95">
    <Points>
      <DataArray type="Float64" NumberOfComponents="3" format="ascii">
102.50000 0.00000 0
110.00000 0.00000 0
120.00000 0.00000 0
130.00000 0.00000 0
140.00000 0.00000 0
150.00000 0.00000 0
160.00000 0.00000 0
170.00000 0.00000 0
180.00000 0.00000 0
190.00000 0.00000 0
200.00000 0.00000 0
210.00000 0.00000 0
220.00000 0.00000 0
230.00000 0.00000 0
240.00000 0.00000 0
247.50000 0.00000 0
250.00825 2.49291 0
250.02115 9.98577 0
250.03399 19.98031 0
250.04449 29.97676 0
250.05349 39.97426 0
250.06133 49.97241 0
250.06825 59.97099 0
250.07439 69.96985 0
250.07985 79.96890 0
250.08472 89.96804 0
250.08908 99.96723 0
250.09298 109.96642 0
250.09649 119.96557 0
250.09966 129.96464 0
250.10255 139.96363 0
250.10521 149.96251 0
250.10769 159.96127 0
250.11002 169.95992 0
250.11225 179.95844 0
250.11442 189.95685 0
250.11656 199.95515 0
250.11871 209.95336 0
250.12089 219.95149 0
250.12311 229.94956 0
250.12539 239.94760 0
250.12713 247.44613 0
247.62658 249.94622 0
240.12316 249.94797 0
230.11861 249.95032 0
220.11404 249.95272 0
210.10940 249.95517 0
200.10470 249.95765 0
190.09991 249.96012 0
180.09503 249.96257 0
170.09006 249.96496 0
160.08500 249.96728 0
150.07987 249.96950 0
140.07467 249.97160 0
130.06942 249.97357 0
120.06413 249.97540 0
110.05882 249.97709 0
100.05351 249.97863 0
90.04822 249.98005 0
80.04297 249.98136 0
70.03777 249.98260 0
60.03265 249.98381 0
50.02762 249.98507 0
40.02266 249.98648 0
30.01776 249.98817 0
20.01283 249.99038 0
10.00765 249.99355 0
2.50302 249.99733 0
0.00000 247.50000 0
0.00000 240.00000 0
0.00000 230.00000 0
0.00000 220.00000 0
0.00000 210.00000 0
0.00000 200.00000 0
0.00000 190.00000 0
0.00000 180.00000 0
0.00000 170.00000 0
0.00000 160.00000 0
0.00000 150.00000 0
0.00000 140.00000 0
0.00000 130.00000 0
0.00000 120.00000 0
0.00000 110.00000 0
0.00000 102.50000 0
1.67401 98.33481 0
6.68062 93.33773 0
13.35249 86.67420 0
20.02252 80.01010 0
26.69137 73.34556 0
33.35934 66.68066 0
40.02654 60.01543 0
46.69306 53.34987 0
53.35893 46.68398 0
60.02418 40.01773 0
66.68881 33.35107 0
73.35281 26.68391 0
80.01614 20.01614 0
86.67871 13.34749 0
93.34036 6.67740 0
98.33567 1.67259 0
      </DataArray>
    </Points>
    <Cells>
      <DataArray type="Int32" Name="connectivity" format="ascii">
0 1
1 2
2 3
3 4
4 5
5 6
6 7
7 8
8 9
9 10
10 11
11 12
12 13
13 14
14 15
16 17
17 18
18 19
19 20
20 21
21 22
22 23
23 24
24 25
25 26
26 27
27 28
28 29
29 30
30 31
31 32
32 33
33 34
34 35
35 36
36 37
37 38
38 39
39 40
40 41
42 43
43 44
44 45
45 46
46 47
47 48
48 49
49 50
50 51
51 52
52 53
53 54
54 55
55 56
56 57
57 58
58 59
59 60
60 61
61 62
62 63
63 64
64 65
65 66
66 67
68 69
69 70
70 71
71 72
72 73
73 74
74 75
75 76
76 77
77 78
78 79
79 80
80 81
81 82
82 83
84 85
85 86
86 87
87 88
88 89
89 90
90 91
91 92
92 93
93 94
94 95
95 96
96 97
97 98
98 99
      </DataArray>
      <DataArray type="Int32" Name="offsets" format="ascii">
2
4
6
8
10
12
14
16
18
20
22
24
26
28
30
32
34
36
38
40
42
44
46
48
50
52
54
56
58
60
62
64
66
68
70
72
74
76
78
80
82
84
86
88
90
92
94
96
98
100
102
104
106
108
110
112
114
116
118
120
122
124
126
128
130
132
134
136
138
140
142
144
146
148
150
152
154
156
158
160
162
164
166
168
170
172
174
176
178
180
182
184
186
188
190
      </DataArray>
      <DataArray type="UInt8" Name="types" format="ascii">
68
68
68
68
68
68
68
68
68
68
68
68
68
68
68
68
68
68
68
68
68
68
68
68
68
68
68
68
68
68
68
68
68
68
68
68
68
68
68
68
68
68
68
68
68
68
68
68
68
68
68
68
68
68
68
68
68
68
68
68
68
68
68
68
68
68
68
68
68
68
68
68
68
68
68
68
68
68
68
68
68
68
68
68
68
68
68
68
68
68
68
68
68
68
68
      </DataArray>
    </Cells>
    <PointData>
      <DataArray type="Float64" NumberOfComponents="2" Name="Displacements" format="ascii">
0.00000 0.00000
0.00000 0.00000
0.00000 0.00000
0.00000 0.00000
0.00000 0.00000
0.00000 0.00000
0.00000 0.00000
0.00000 0.00000
0.00000 0.00000
0.00000 0.00000
0.00000 0.00000
0.00000 0.00000
0.00000 0.00000
0.00000 0.00000
0.00000 0.00000
0.00000 0.00000
0.00825 -0.00709
0.02115 -0.01423
0.03399 -0.01969
0.04449 -0.02324
0.05349 -0.02574
0.06133 -0.02759
0.06825 -0.02901
0.07439 -0.03015
0.07985 -0.03110
0.08472 -0.03196
0.08908 -0.03277
0.09298 -0.03358
0.09649 -0.03443
0.09966 -0.03536
0.10255 -0.03637
0.10521 -0.03749
0.10769 -0.03873
0.11002 -0.04008
0.11225 -0.04156
0.11442 -0.04315
0.11656 -0.04485
0.11871 -0.04664
0.12089 -0.04851
0.12311 -0.05044
0.12539 -0.05240
0.12713 -0.05387
0.12658 -0.05378
0.12316 -0.05203
0.11861 -0.04968
0.11404 -0.04728
0.10940 -0.04483
0.10470 -0.04235
0.09991 -0.03988
0.09503 -0.03743
0.09006 -0.03504
0.08500 -0.03272
0.07987 -0.03050
0.07467 -0.02840
0.06942 -0.02643
0.06413 -0.02460
0.05882 -0.02291
0.05351 -0.02137
0.04822 -0.01995
0.04297 -0.01864
0.03777 -0.01740
0.03265 -0.01619
0.02762 -0.01493
0.02266 -0.01352
0.01776 -0.01183
0.01283 -0.00962
0.00765 -0.00645
0.00302 -0.00267
0.00000 0.00000
0.00000 0.00000
0.00000 0.00000
0.00000 0.00000
0.00000 0.00000
0.00000 0.00000
0.00000 0.00000
0.00000 0.00000
0.00000 0.00000
0.00000 0.00000
0.00000 0.00000
0.00000 0.00000
0.00000 0.00000
0.00000 0.00000
0.00000 0.00000
0.00000 0.00000
0.00734 0.00147
0.01395 0.00440
0.01916 0.00754
0.02252 0.01010
0.02471 0.01222
0.02600 0.01399
0.02654 0.01543
0.02639 0.01654
0.02560 0.01732
0.02418 0.01773
0.02215 0.01774
0.01948 0.01725
0.01614 0.01614
0.01205 0.01415
0.00703 0.01073
0.00234 0.00593
      </DataArray>
      <DataArray type="Float64" NumberOfComponents="4" Name="Stress" format="ascii">
0 0 0 0
0 0 0 0
0 0 0 0
0 0 0 0
0 0 0 0
0 0 0 0
0 0 0 0
0 0 0 0
0 0 0 0
0 0 0 0
0 0 0 0
0 0 0 0
0 0 0 0
0 0 0 0
0 0 0 0
0 0 0 0
0 0 0 0
0 0 0 0
0 0 0 0
0 0 0 0
0 0 0 0
0 0 0 0
0 0 0 0
0 0 0 0
0 0 0 0
0 0 0 0
0 0 0 0
0 0 0 0
0 0 0 0
0 0 0 0
0 0 0 0
0 0 0 0
0 0 0 0
0 0 0 0
0 0 0 0
0 0 0 0
0 0 0 0
0 0 0 0
0 0 0 0
0 0 0 0
0 0 0 0
0 0 0 0
0 0 0 0
0 0 0 0
0 0 0 0
0 0 0 0
0 0 0 0
0 0 0 0
0 0 0 0
0 0 0 0
0 0 0 0
0 0 0 0
0 0 0 0
0 0 0 0
0 0 0 0
0 0 0 0
0 0 0 0
0 0 0 0
0 0 0 0
0 0 0 0
0 0 0 0
0 0 0 0
0 0 0 0
0 0 0 0
0 0 0 0
0 0 0 0
0 0 0 0
0 0 0 0
0 0 0 0
0 0 0 0
0 0 0 0
0 0 0 0
0 0 0 0
0 0 0 0
0 0 0 0
0 0 0 0
0 0 0 0
0 0 0 0
0 0 0 0
0 0 0 0
0 0 0 0
0 0 0 0
0 0 0 0
0 0 0 0
0 0 0 0
0 0 0 0
0 0 0 0
0 0 0 0
0 0 0 0
0 0 0 0
0 0 0 0
0 0 0 0
0 0 0 0
0 0 0 0
0 0 0 0
0 0 0 0
0 0 0 0
0 0 0 0
0 0 0 0
0 0 0 0
      </DataArray>
    </PointData>
  </Piece>
  </UnstructuredGrid>
</VTKFile>