<?xml version="1.0"?>
<VTKFile type="UnstructuredGrid">
  <UnstructuredGrid>
  <Piece NumberOfPoints="100" NumberOfCells="95">
    <Points>
      <DataArray type="Float64" NumberOfComponents="3" format="ascii">
102.50000 0.00000 0
110.00000 0.00000 0
120.00000 0.00000 0
130.00000 0.00000 0
140.00000 0.00000 0
150.00000 0.00000 0
160.00000 0.00000 0
170.00000 0.00000 0
180.00000 0.00000 0
190.00000 0.00000 0
200.00000 0.00000 0
210.00000 0.00000 0
220.00000 0.00000 0
230.00000 0.00000 0
240.00000 0.00000 0
247.50000 0.00000 0
250.00544 2.49288 0
250.01695 9.98371 0
250.03034 19.97702 0
250.04195 29.97327 0
250.05212 39.97116 0
250.06111 49.97010 0
250.06910 59.96975 0
250.07621 69.96990 0
250.08254 79.97041 0
250.08817 89.97116 0
250.09319 99.97205 0
250.09765 109.97304 0
250.10161 119.97405 0
250.10514 129.97505 0
250.10830 139.97601 0
250.11113 149.97689 0
250.11370 159.97768 0
250.11604 169.97837 0
250.11821 179.97894 0
250.12026 189.97939 0
250.12223 199.97973 0
250.12417 209.97995 0
250.12610 219.98007 0
250.12808 229.98012 0
250.13011 239.98012 0
250.13167 247.48012 0
247.63094 249.98064 0
240.12719 249.98220 0
230.12219 249.98433 0
220.11713 249.98651 0
210.11201 249.98872 0
200.10679 249.99094 0
190.10147 249.99312 0
180.09604 249.99522 0
170.09052 249.99722 0
160.08491 249.99908 0
150.07923 250.00076 0
140.07349 250.00225 0
130.06770 250.00353 0
120.06189 250.00457 0
110.05607 250.00536 0
100.05028 250.00590 0
90.04453 250.00619 0
80.03885 250.00622 0
70.03327 250.00600 0
60.02781 250.00556 0
50.02250 250.00489 0
40.01738 250.00405 0
30.01249 250.00305 0
20.00787 250.00196 0
10.00362 250.00087 0
2.50076 250.00019 0
0.00000 247.50000 0
0.00000 240.00000 0
0.00000 230.00000 0
0.00000 220.00000 0
0.00000 210.00000 0
0.00000 200.00000 0
0.00000 190.00000 0
0.00000 180.00000 0
0.00000 170.00000 0
0.00000 160.00000 0
0.00000 150.00000 0
0.00000 140.00000 0
0.00000 130.00000 0
0.00000 120.00000 0
0.00000 110.00000 0
0.00000 102.50000 0
1.67257 98.33221 0
6.67962 93.33326 0
13.35230 86.66913 0
20.02291 80.00514 0
26.69215 73.34104 0
33.36033 66.67672 0
40.02760 60.01216 0
46.69405 53.34730 0
53.35975 46.68211 0
60.02472 40.01652 0
66.68896 33.35045 0
73.35250 26.68381 0
80.01530 20.01641 0
86.67733 13.34793 0
93.33859 6.67764 0
98.33430 1.67235 0
      </DataArray>
    </Points>
    <Cells>
      <DataArray type="Int32" Name="connectivity" format="ascii">
0 1
1 2
2 3
3 4
4 5
5 6
6 7
7 8
8 9
9 10
10 11
11 12
12 13
13 14
14 15
16 17
17 18
18 19
19 20
20 21
21 22
22 23
23 24
24 25
25 26
26 27
27 28
28 29
29 30
30 31
31 32
32 33
33 34
34 35
35 36
36 37
37 38
38 39
39 40
40 41
42 43
43 44
44 45
45 46
46 47
47 48
48 49
49 50
50 51
51 52
52 53
53 54
54 55
55 56
56 57
57 58
58 59
59 60
60 61
61 62
62 63
63 64
64 65
65 66
66 67
68 69
69 70
70 71
71 72
72 73
73 74
74 75
75 76
76 77
77 78
78 79
79 80
80 81
81 82
82 83
84 85
85 86
86 87
87 88
88 89
89 90
90 91
91 92
92 93
93 94
94 95
95 96
96 97
97 98
98 99
      </DataArray>
      <DataArray type="Int32" Name="offsets" format="ascii">
2
4
6
8
10
12
14
16
18
20
22
24
26
28
30
32
34
36
38
40
42
44
46
48
50
52
54
56
58
60
62
64
66
68
70
72
74
76
78
80
82
84
86
88
90
92
94
96
98
100
102
104
106
108
110
112
114
116
118
120
122
124
126
128
130
132
134
136
138
140
142
144
146
148
150
152
154
156
158
160
162
164
166
168
170
172
174
176
178
180
182
184
186
188
190
      </DataArray>
      <DataArray type="UInt8" Name="types" format="ascii">
68
68
68
68
68
68
68
68
68
68
68
68
68
68
68
68
68
68
68
68
68
68
68
68
68
68
68
68
68
68
68
68
68
68
68
68
68
68
68
68
68
68
68
68
68
68
68
68
68
68
68
68
68
68
68
68
68
68
68
68
68
68
68
68
68
68
68
68
68
68
68
68
68
68
68
68
68
68
68
68
68
68
68
68
68
68
68
68
68
68
68
68
68
68
68
      </DataArray>
    </Cells>
    <PointData>
      <DataArray type="Float64" NumberOfComponents="2" Name="Displacements" format="ascii">
0.00000 0.00000
0.00000 0.00000
0.00000 0.00000
0.00000 0.00000
0.00000 0.00000
0.00000 0.00000
0.00000 0.00000
0.00000 0.00000
0.00000 0.00000
0.00000 0.00000
0.00000 0.00000
0.00000 0.00000
0.00000 0.00000
0.00000 0.00000
0.00000 0.00000
0.00000 0.00000
0.00544 -0.00712
0.01695 -0.01629
0.03034 -0.02298
0.04195 -0.02673
0.05212 -0.02884
0.06111 -0.02990
0.06910 -0.03025
0.07621 -0.03010
0.08254 -0.02959
0.08817 -0.02884
0.09319 -0.02795
0.09765 -0.02696
0.10161 -0.02595
0.10514 -0.02495
0.10830 -0.02399
0.11113 -0.02311
0.11370 -0.02232
0.11604 -0.02163
0.11821 -0.02106
0.12026 -0.02061
0.12223 -0.02027
0.12417 -0.02005
0.12610 -0.01993
0.12808 -0.01988
0.13011 -0.01988
0.13167 -0.01988
0.13094 -0.01936
0.12719 -0.01780
0.12219 -0.01567
0.11713 -0.01349
0.11201 -0.01128
0.10679 -0.00906
0.10147 -0.00688
0.09604 -0.00478
0.09052 -0.00278
0.08491 -0.00092
0.07923 0.00076
0.07349 0.00225
0.06770 0.00353
0.06189 0.00457
0.05607 0.00536
0.05028 0.00590
0.04453 0.00619
0.03885 0.00622
0.03327 0.00600
0.02781 0.00556
0.02250 0.00489
0.01738 0.00405
0.01249 0.00305
0.00787 0.00196
0.00362 0.00087
0.00076 0.00019
0.00000 0.00000
0.00000 0.00000
0.00000 0.00000
0.00000 0.00000
0.00000 0.00000
0.00000 0.00000
0.00000 0.00000
0.00000 0.00000
0.00000 0.00000
0.00000 0.00000
0.00000 0.00000
0.00000 0.00000
0.00000 0.00000
0.00000 0.00000
0.00000 0.00000
0.00000 0.00000
0.00590 -0.00112
0.01295 -0.00007
0.01896 0.00246
0.02291 0.00514
0.02548 0.00770
0.02699 0.01005
0.02760 0.01216
0.02739 0.01397
0.02642 0.01544
0.02472 0.01652
0.02230 0.01712
0.01916 0.01714
0.01530 0.01641
0.01066 0.01459
0.00526 0.01097
0.00097 0.00568
      </DataArray>
      <DataArray type="Float64" NumberOfComponents="4" Name="Stress" format="ascii">
0 0 0 0
0 0 0 0
0 0 0 0
0 0 0 0
0 0 0 0
0 0 0 0
0 0 0 0
0 0 0 0
0 0 0 0
0 0 0 0
0 0 0 0
0 0 0 0
0 0 0 0
0 0 0 0
0 0 0 0
0 0 0 0
0 0 0 0
0 0 0 0
0 0 0 0
0 0 0 0
0 0 0 0
0 0 0 0
0 0 0 0
0 0 0 0
0 0 0 0
0 0 0 0
0 0 0 0
0 0 0 0
0 0 0 0
0 0 0 0
0 0 0 0
0 0 0 0
0 0 0 0
0 0 0 0
0 0 0 0
0 0 0 0
0 0 0 0
0 0 0 0
0 0 0 0
0 0 0 0
0 0 0 0
0 0 0 0
0 0 0 0
0 0 0 0
0 0 0 0
0 0 0 0
0 0 0 0
0 0 0 0
0 0 0 0
0 0 0 0
0 0 0 0
0 0 0 0
0 0 0 0
0 0 0 0
0 0 0 0
0 0 0 0
0 0 0 0
0 0 0 0
0 0 0 0
0 0 0 0
0 0 0 0
0 0 0 0
0 0 0 0
0 0 0 0
0 0 0 0
0 0 0 0
0 0 0 0
0 0 0 0
0 0 0 0
0 0 0 0
0 0 0 0
0 0 0 0
0 0 0 0
0 0 0 0
0 0 0 0
0 0 0 0
0 0 0 0
0 0 0 0
0 0 0 0
0 0 0 0
0 0 0 0
0 0 0 0
0 0 0 0
0 0 0 0
0 0 0 0
0 0 0 0
0 0 0 0
0 0 0 0
0 0 0 0
0 0 0 0
0 0 0 0
0 0 0 0
0 0 0 0
0 0 0 0
0 0 0 0
0 0 0 0
0 0 0 0
0 0 0 0
0 0 0 0
0 0 0 0
      </DataArray>
    </PointData>
  </Piece>
  </UnstructuredGrid>
</VTKFile>