<?xml version="1.0"?>
<VTKFile type="UnstructuredGrid">
  <UnstructuredGrid>
  <Piece NumberOfPoints="100" NumberOfCells="95">
    <Points>
      <DataArray type="Float64" NumberOfComponents="3" format="ascii">
102.50000 0.00000 0
110.00000 0.00000 0
120.00000 0.00000 0
130.00000 0.00000 0
140.00000 0.00000 0
150.00000 0.00000 0
160.00000 0.00000 0
170.00000 0.00000 0
180.00000 0.00000 0
190.00000 0.00000 0
200.00000 0.00000 0
210.00000 0.00000 0
220.00000 0.00000 0
230.00000 0.00000 0
240.00000 0.00000 0
247.50000 0.00000 0
249.99733 2.50302 0
249.99355 10.00765 0
249.99038 20.01283 0
249.98817 30.01776 0
249.98648 40.02266 0
249.98507 50.02762 0
249.98381 60.03265 0
249.98260 70.03777 0
249.98136 80.04297 0
249.98005 90.04822 0
249.97863 100.05351 0
249.97709 110.05882 0
249.97540 120.06413 0
249.97357 130.06942 0
249.97160 140.07467 0
249.96950 150.07987 0
249.96728 160.08500 0
249.96496 170.09006 0
249.96257 180.09503 0
249.96012 190.09991 0
249.95765 200.10470 0
249.95517 210.10940 0
249.95272 220.11404 0
249.95032 230.11861 0
249.94797 240.12316 0
249.94622 247.62658 0
247.44613 250.12713 0
239.94760 250.12539 0
229.94956 250.12311 0
219.95149 250.12089 0
209.95336 250.11871 0
199.95515 250.11656 0
189.95685 250.11442 0
179.95844 250.11225 0
169.95992 250.11002 0
159.96127 250.10769 0
149.96251 250.10521 0
139.96363 250.10255 0
129.96464 250.09966 0
119.96557 250.09649 0
109.96642 250.09298 0
99.96723 250.08908 0
89.96804 250.08472 0
79.96890 250.07985 0
69.96985 250.07439 0
59.97099 250.06825 0
49.97241 250.06133 0
39.97426 250.05349 0
29.97676 250.04449 0
19.98031 250.03399 0
9.98577 250.02115 0
2.49291 250.00825 0
0.00000 247.50000 0
0.00000 240.00000 0
0.00000 230.00000 0
0.00000 220.00000 0
0.00000 210.00000 0
0.00000 200.00000 0
0.00000 190.00000 0
0.00000 180.00000 0
0.00000 170.00000 0
0.00000 160.00000 0
0.00000 150.00000 0
0.00000 140.00000 0
0.00000 130.00000 0
0.00000 120.00000 0
0.00000 110.00000 0
0.00000 102.50000 0
1.67259 98.33567 0
6.67740 93.34036 0
13.34749 86.67871 0
20.01614 80.01614 0
26.68391 73.35281 0
33.35107 66.68881 0
40.01773 60.02418 0
46.68398 53.35893 0
53.34987 46.69306 0
60.01543 40.02654 0
66.68066 33.35934 0
73.34556 26.69137 0
80.01010 20.02252 0
86.67420 13.35249 0
93.33773 6.68062 0
98.33481 1.67401 0
      </DataArray>
    </Points>
    <Cells>
      <DataArray type="Int32" Name="connectivity" format="ascii">
0 1
1 2
2 3
3 4
4 5
5 6
6 7
7 8
8 9
9 10
10 11
11 12
12 13
13 14
14 15
16 17
17 18
18 19
19 20
20 21
21 22
22 23
23 24
24 25
25 26
26 27
27 28
28 29
29 30
30 31
31 32
32 33
33 34
34 35
35 36
36 37
37 38
38 39
39 40
40 41
42 43
43 44
44 45
45 46
46 47
47 48
48 49
49 50
50 51
51 52
52 53
53 54
54 55
55 56
56 57
57 58
58 59
59 60
60 61
61 62
62 63
63 64
64 65
65 66
66 67
68 69
69 70
70 71
71 72
72 73
73 74
74 75
75 76
76 77
77 78
78 79
79 80
80 81
81 82
82 83
84 85
85 86
86 87
87 88
88 89
89 90
90 91
91 92
92 93
93 94
94 95
95 96
96 97
97 98
98 99
      </DataArray>
      <DataArray type="Int32" Name="offsets" format="ascii">
2
4
6
8
10
12
14
16
18
20
22
24
26
28
30
32
34
36
38
40
42
44
46
48
50
52
54
56
58
60
62
64
66
68
70
72
74
76
78
80
82
84
86
88
90
92
94
96
98
100
102
104
106
108
110
112
114
116
118
120
122
124
126
128
130
132
134
136
138
140
142
144
146
148
150
152
154
156
158
160
162
164
166
168
170
172
174
176
178
180
182
184
186
188
190
      </DataArray>
      <DataArray type="UInt8" Name="types" format="ascii">
68
68
68
68
68
68
68
68
68
68
68
68
68
68
68
68
68
68
68
68
68
68
68
68
68
68
68
68
68
68
68
68
68
68
68
68
68
68
68
68
68
68
68
68
68
68
68
68
68
68
68
68
68
68
68
68
68
68
68
68
68
68
68
68
68
68
68
68
68
68
68
68
68
68
68
68
68
68
68
68
68
68
68
68
68
68
68
68
68
68
68
68
68
68
68
      </DataArray>
    </Cells>
    <PointData>
      <DataArray type="Float64" NumberOfComponents="2" Name="Displacements" format="ascii">
0.00000 0.00000
0.00000 0.00000
0.00000 0.00000
0.00000 0.00000
0.00000 0.00000
0.00000 0.00000
0.00000 0.00000
0.00000 0.00000
0.00000 0.00000
0.00000 0.00000
0.00000 0.00000
0.00000 0.00000
0.00000 0.00000
0.00000 0.00000
0.00000 0.00000
0.00000 0.00000
-0.00267 0.00302
-0.00645 0.00765
-0.00962 0.01283
-0.01183 0.01776
-0.01352 0.02266
-0.01493 0.02762
-0.01619 0.03265
-0.01740 0.03777
-0.01864 0.04297
-0.01995 0.04822
-0.02137 0.05351
-0.02291 0.05882
-0.02460 0.06413
-0.02643 0.06942
-0.02840 0.07467
-0.03050 0.07987
-0.03272 0.08500
-0.03504 0.09006
-0.03743 0.09503
-0.03988 0.09991
-0.04235 0.10470
-0.04483 0.10940
-0.04728 0.11404
-0.04968 0.11861
-0.05203 0.12316
-0.05378 0.12658
-0.05387 0.12713
-0.05240 0.12539
-0.05044 0.12311
-0.04851 0.12089
-0.04664 0.11871
-0.04485 0.11656
-0.04315 0.11442
-0.04156 0.11225
-0.04008 0.11002
-0.03873 0.10769
-0.03749 0.10521
-0.03637 0.10255
-0.03536 0.09966
-0.03443 0.09649
-0.03358 0.09298
-0.03277 0.08908
-0.03196 0.08472
-0.03110 0.07985
-0.03015 0.07439
-0.02901 0.06825
-0.02759 0.06133
-0.02574 0.05349
-0.02324 0.04449
-0.01969 0.03399
-0.01423 0.02115
-0.00709 0.00825
0.00000 0.00000
0.00000 0.00000
0.00000 0.00000
0.00000 0.00000
0.00000 0.00000
0.00000 0.00000
0.00000 0.00000
0.00000 0.00000
0.00000 0.00000
0.00000 0.00000
0.00000 0.00000
0.00000 0.00000
0.00000 0.00000
0.00000 0.00000
0.00000 0.00000
0.00000 0.00000
0.00593 0.00234
0.01073 0.00703
0.01415 0.01205
0.01614 0.01614
0.01725 0.01948
0.01774 0.02215
0.01773 0.02418
0.01732 0.02560
0.01654 0.02639
0.01543 0.02654
0.01399 0.02600
0.01222 0.02471
0.01010 0.02252
0.00754 0.01916
0.00440 0.01395
0.00147 0.00734
      </DataArray>
      <DataArray type="Float64" NumberOfComponents="4" Name="Stress" format="ascii">
0 0 0 0
0 0 0 0
0 0 0 0
0 0 0 0
0 0 0 0
0 0 0 0
0 0 0 0
0 0 0 0
0 0 0 0
0 0 0 0
0 0 0 0
0 0 0 0
0 0 0 0
0 0 0 0
0 0 0 0
0 0 0 0
0 0 0 0
0 0 0 0
0 0 0 0
0 0 0 0
0 0 0 0
0 0 0 0
0 0 0 0
0 0 0 0
0 0 0 0
0 0 0 0
0 0 0 0
0 0 0 0
0 0 0 0
0 0 0 0
0 0 0 0
0 0 0 0
0 0 0 0
0 0 0 0
0 0 0 0
0 0 0 0
0 0 0 0
0 0 0 0
0 0 0 0
0 0 0 0
0 0 0 0
0 0 0 0
0 0 0 0
0 0 0 0
0 0 0 0
0 0 0 0
0 0 0 0
0 0 0 0
0 0 0 0
0 0 0 0
0 0 0 0
0 0 0 0
0 0 0 0
0 0 0 0
0 0 0 0
0 0 0 0
0 0 0 0
0 0 0 0
0 0 0 0
0 0 0 0
0 0 0 0
0 0 0 0
0 0 0 0
0 0 0 0
0 0 0 0
0 0 0 0
0 0 0 0
0 0 0 0
0 0 0 0
0 0 0 0
0 0 0 0
0 0 0 0
0 0 0 0
0 0 0 0
0 0 0 0
0 0 0 0
0 0 0 0
0 0 0 0
0 0 0 0
0 0 0 0
0 0 0 0
0 0 0 0
0 0 0 0
0 0 0 0
0 0 0 0
0 0 0 0
0 0 0 0
0 0 0 0
0 0 0 0
0 0 0 0
0 0 0 0
0 0 0 0
0 0 0 0
0 0 0 0
0 0 0 0
0 0 0 0
0 0 0 0
0 0 0 0
0 0 0 0
0 0 0 0
      </DataArray>
    </PointData>
  </Piece>
  </UnstructuredGrid>
</VTKFile>