<?xml version="1.0"?>
<VTKFile type="UnstructuredGrid">
  <UnstructuredGrid>
  <Piece NumberOfPoints="16" NumberOfCells="12">
    <Points>
      <DataArray type="Float64" NumberOfComponents="3" format="ascii">
0.16667 -0.00000 0
0.66667 -0.00000 0
1.33333 0.00000 0
1.83333 -0.00000 0
2.00000 0.08333 0
2.00000 0.33333 0
2.00000 0.66667 0
2.00000 0.91667 0
1.83333 1.00000 0
1.33333 1.00000 0
0.66667 1.00000 0
0.16667 1.00000 0
0.00000 0.91667 0
0.00000 0.66667 0
0.00000 0.33333 0
0.00000 0.08333 0
      </DataArray>
    </Points>
    <Cells>
      <DataArray type="Int32" Name="connectivity" format="ascii">
0 1
1 2
2 3
4 5
5 6
6 7
8 9
9 10
10 11
12 13
13 14
14 15
      </DataArray>
      <DataArray type="Int32" Name="offsets" format="ascii">
2
4
6
8
10
12
14
16
18
20
22
24
      </DataArray>
      <DataArray type="UInt8" Name="types" format="ascii">
68
68
68
68
68
68
68
68
68
68
68
68
      </DataArray>
    </Cells>
    <PointData>
      <DataArray type="Float64" NumberOfComponents="2" Name="Displacements" format="ascii">
0.08333 -0.00000
0.33333 -0.00000
0.66667 0.00000
0.91667 -0.00000
1.00000 -0.00000
1.00000 -0.00000
1.00000 0.00000
1.00000 0.00000
0.91667 -0.00000
0.66667 -0.00000
0.33333 -0.00000
0.08333 -0.00000
0.00000 0.00000
0.00000 0.00000
0.00000 0.00000
0.00000 0.00000
      </DataArray>
      <DataArray type="Float64" NumberOfComponents="4" Name="Stress" format="ascii">
0 0 0 0
0 0 0 0
0 0 0 0
0 0 0 0
0 0 0 0
0 0 0 0
0 0 0 0
0 0 0 0
0 0 0 0
0 0 0 0
0 0 0 0
0 0 0 0
0 0 0 0
0 0 0 0
0 0 0 0
0 0 0 0
      </DataArray>
    </PointData>
  </Piece>
  </UnstructuredGrid>
</VTKFile>